%chk=C:\Users\User\Desktop\gaussian\pentane\pentane.chk
# hf/3-21g geom=connectivity

Title Card Required

0 1
C         3.56008100   0.05653800   0.0013290
C         2.05181600   0.06350500   -0.0001790
O         1.42945900   1.13226000   -0.0008190
N         1.43889900   -1.13417100   -0.0004780
H         3.98409900   -0.94483000   -0.0004390
H         3.90772900   0.59861200   -0.8755300
H         3.90587100   0.59455200   0.8814500
H         0.41627800   -1.18579400   -0.0012660
H         1.98081500   -1.97792100   -0.0002100
C         -3.56005100   -0.05672700   0.0014750
C         -2.05178100   -0.06349500   -0.0001340
O         -1.42931100   -1.13218400   -0.0009870
N         -1.43905900   1.13428300   -0.0007690
H         -3.98421100   0.94458100   0.0031020
H         -3.90760500   -0.59573800   -0.8773320
H         -3.90578500   -0.59791100   0.8796490
H         -0.41647100   1.18622100   -0.0016260
H         -1.98116800   1.97791000   0.0004330
