%chk=C:\Users\User\Desktop\gaussian\pentane\pentane.chk
# hf/3-21g geom=connectivity

Title Card Required

0 1
C         -1.707002   -0.158429   -0.00003
C         -3.207229   -0.174553   -0.00001
O         -1.003322   -1.152720   -0.00027
O         -1.223712   1.089893   0.00018
H         -0.236164   1.037416   0.00014
H         -3.563002   -1.198470   -0.00019
H         -3.575451   0.352952   0.87779
H         -3.575473   0.353262   -0.87762
C         3.493006   -0.399872   -0.00001
C         2.022111   -0.152114   0.00007
O         1.531394   0.969104   0.00006
H         1.357431   -1.027395   0.00007
H         4.046017   0.534513   -0.00005
H         3.753274   -0.996338   0.87569
H         3.753171   -0.996348   -0.87575
