%chk=C:\Users\User\Desktop\gaussian\pentane\pentane.chk
# hf/3-21g geom=connectivity

Title Card Required

0 1
C         3.452390   -0.918375   0.00000
C         2.701365   0.400918   0.00004
C         1.206677   0.220650   -0.00001
O         0.639423   -0.857603   -0.00005
O         0.564234   1.395100   -0.00001
H         3.196974   -1.508323   -0.87773
H         4.526948   -0.743760   0.00006
H         3.196892   -1.508419   0.87765
H         2.953789   1.008873   -0.87033
H         2.953726   1.008783   0.87051
H         -0.407819   1.214431   -0.00005
C         -3.918822   -0.700401   0.00003
C         -2.493270   -0.261101   -0.00001
O         -2.154247   0.914815   -0.00000
H         -1.719249   -1.041485   -0.00005
H         -4.590019   0.153065   0.00008
H         -4.098315   -1.325890   -0.87571
H         -4.098243   -1.325919   0.87578
