%chk=C:\Users\User\Desktop\gaussian\pentane\pentane.chk
# hf/3-21g geom=connectivity

Title Card Required

0 1
C         2.451044   -0.025720   0.04179
C         3.927023   -0.286733   0.10552
O         1.957450   1.090073   0.15311
O         1.752026   -1.135712   -0.14751
H         0.772098   -0.929148   -0.18649
H         4.460355   0.643944   0.26157
H         4.135561   -0.982636   0.91582
H         4.250360   -0.757095   -0.82106
C         -3.008047   0.301264   -0.30598
C         -1.503436   0.282178   -0.17562
C         -3.647898   -0.839776   0.47586
O         -0.876509   -0.782550   -0.28058
N         -0.891989   1.457102   0.04270
H         0.126213   1.479261   0.10206
H         -1.427263   2.301496   0.12234
H         -4.724476   -0.855842   0.31651
H         -3.229908   -1.790728   0.15509
H         -3.460933   -0.730089   1.54333
H         -3.403550   1.266453   0.01202
H         -3.230386   0.192905   -1.36966
