%chk=C:\Users\User\Desktop\gaussian\pentane\pentane.chk
# hf/3-21g geom=connectivity

Title Card Required

0 1
C         -1.676709350   -0.155545695   0.00000000
C         -3.180974158   -0.156065960   0.00000000
O         -0.993533620   -1.155786393   0.00000000
O         -1.173945330   1.080177302   0.00000000
H         -0.185940107   1.035554940   0.00000000
H         -3.550265591   -1.175547772   0.00000000
H         -3.549007807   0.375205388   -0.87674463
H         -3.549007807   0.375205388   0.87674463
C         3.658371981   -0.478643732   0.00000000
C         2.193267024   -0.195488394   0.00000000
O         1.728631576   0.925413346   0.00000000
H         3.905917637   -1.085082156   0.87420450
H         3.905917637   -1.085082156   -0.87420450
H         4.240860680   0.438258791   0.00000000
H         1.510485692   -1.059175962   0.00000000
