%chk=C:\Users\User\Desktop\gaussian\pentane\pentane.chk
# hf/3-21g geom=connectivity

Title Card Required

0 1
C         -2.13701800   0.75725300   0.1438880
C         -1.62349700   -0.55422100   -0.3532630
O         -0.93786700   -1.32096400   0.2987530
H         -1.89438400   -0.81102100   -1.3927740
H         -1.89634000   0.89257400   1.1942410
H         -1.67403700   1.55268700   -0.4427560
H         -3.21483600   0.81146400   -0.0143690
C         2.19350400   -0.72484000   -0.1625550
C         1.52077700   0.49460300   0.3787360
O         0.98352600   1.34827500   -0.3032990
H         1.52480000   0.59226100   1.4786780
H         2.18559600   -0.71829300   -1.2487490
H         3.21735600   -0.77204300   0.2110140
H         1.66397600   -1.60288900   0.2102460
