%chk=C:\Users\User\Desktop\gaussian\pentane\pentane.chk
# hf/3-21g geom=connectivity

Title Card Required

0 1
C         2.649210   -0.460171   -0.23360
C         1.158711   -0.203971   -0.11398
C         3.468431   0.701006   0.30865
O         0.685606   0.928942   -0.17231
N         0.386673   -1.307521   0.03736
H         -0.623093   -1.217853   0.05868
H         0.800766   -2.220231   0.07120
H         3.297535   0.828543   1.37663
H         4.531663   0.529791   0.14832
H         3.180142   1.624872   -0.18651
H         2.908251   -1.393673   0.26881
H         2.858892   -0.603838   -1.29656
C         -2.691993   1.324154   -0.04319
C         -3.268452   -0.046956   0.06654
O         -2.616824   -1.077794   0.10843
H         -4.369713   -0.109210   0.11190
H         -1.604908   1.302082   -0.08452
H         -3.100115   1.803884   -0.93504
H         -3.031840   1.914726   0.80995
