%chk=C:\Users\User\Desktop\gaussian\pentane\pentane.chk
# hf/3-21g geom=connectivity

Title Card Required

0 1
C         -1.93137600   0.06074300   -0.0010020
C         -3.42819600   0.08196000   0.0013510
O         -1.24308200   1.07715800   -0.0010370
O         -1.43596600   -1.16692500   -0.0013790
H         -0.44000500   -1.11891300   -0.0007060
H         -3.78305400   1.10584400   -0.0159670
H         -3.79750000   -0.46337100   -0.8648600
H         -3.79192300   -0.42946400   0.8905790
C         1.93140100   -0.06075400   0.0003480
C         3.42822400   -0.08202800   0.0005300
O         1.24304100   -1.07711300   0.0004000
O         1.43596400   1.16692600   -0.0001190
H         0.43994500   1.11913800   -0.0005260
H         3.78304600   -1.10606900   0.0031350
H         3.79469100   0.44406900   -0.8788450
H         3.79483600   0.44887000   0.8769170
