%chk=C:\Users\User\Desktop\gaussian\pentane\pentane.chk
# hf/3-21g geom=connectivity

Title Card Required

0 1
C         -4.22533800   1.08574300   0.4552100
C         -3.65348000   -0.18679200   -0.1433200
C         -2.15074300   -0.18846500   -0.1862900
C         -5.76412652   1.02611076   0.4683962
C         -6.32296685   2.32492329   1.0786285
C         -7.86174077   2.26503896   1.0923646
C         -8.42058484   3.56391573   1.7024568
C         -9.95935667   3.50399552   1.7162712
C         -10.51820131   4.80288204   2.3263421
C         -12.05697277   4.74295554   2.3401703
C         -12.61581755   6.04184442   2.9502360
O         -1.44992500   0.73286800   0.2076900
O         -1.66139800   -1.31810200   -0.7082500
H         -3.91695300   1.95610200   -0.1199400
H         -3.87522300   1.22482900   1.4758400
H         -4.00323600   -0.34565600   -1.1648300
H         -3.96067400   -1.07155900   0.4168200
H         -0.67224900   -1.24186600   -0.7041600
H         -6.08365249   0.19016314   1.0549068
H         -6.12547321   0.91820390   -0.5329452
H         -5.96128570   2.43304116   2.0798264
H         -6.00378485   3.16083471   0.4918790
H         -8.18092411   1.42918931   1.6792014
H         -8.22341733   2.15681435   0.0911766
H         -8.05886038   3.67217027   2.7036243
H         -8.10145023   4.39976003   1.1155859
H         -10.27849124   2.66816041   2.3031552
H         -10.32108014   3.39572468   0.7151051
H         -10.15646915   4.91115803   3.3275045
H         -10.19907505   5.63871603   1.7394520
H         -12.37609880   3.90712362   2.9270634
H         -12.41870443   4.63467547   1.3390081
H         -13.68496390   6.00020625   2.9598459
H         -12.25408378   6.15012547   3.9513973
H         -12.29669305   6.87767594   2.3633414
C         2.74759200   -0.02713600   1.1257550
C         1.73989500   -1.04667400   0.6230400
C         3.88944100   0.29188700   0.1624500
C         3.47797700   1.09109400   -1.0703000
C         4.71165255   1.46003469   -1.9150055
C         4.26387865   2.24491175   -3.1620285
C         5.50378211   2.72271055   -3.9404550
C         5.05599054   3.48177277   -5.2033513
C         6.29571196   3.97367510   -5.9732363
C         5.84798854   4.72936510   -7.2381776
C         7.08765300   5.22382278   -8.0065158
O         0.92397100   -0.56025800   -0.4498600
H         2.21689900   0.89188500   1.3958600
H         3.16544600   -0.42565300   2.0547600
H         2.25418600   -1.92267900   0.2267400
H         1.10173900   -1.37478200   1.4494700
H         0.41526800   0.20163900   -0.1159500
H         4.65084100   0.85188100   0.7099400
H         4.36165900   -0.64540600   -0.1454100
H         2.98524100   2.01955800   -0.7769400
H         2.78563500   0.53188900   -1.6944100
H         5.37507548   2.06442661   -1.3323560
H         5.21650909   0.56664788   -2.2181224
H         3.67165833   1.61126322   -3.7886581
H         3.68349207   3.09191963   -2.8609819
H         6.08519323   3.37302211   -3.3208131
H         6.09498991   1.87697554   -4.2234843
H         4.45535319   4.32102369   -4.9208754
H         4.48413521   2.82814566   -5.8283738
H         6.89773275   3.13462515   -6.2533545
H         6.86613628   4.62944389   -5.3491503
H         5.27930353   4.07300717   -7.8632309
H         5.24426780   5.56722841   -6.9581662
H         7.69161173   4.38599495   -8.2861198
H         6.77658199   5.74847571   -8.8856484
H         7.65609025   5.88054934   -7.3816244
