%chk=C:\Users\User\Desktop\gaussian\pentane\pentane.chk
# hf/3-21g geom=connectivity

Title Card Required

0 1
C         -4.22013390   -0.92690894   -0.0410301
C         -3.58176743   0.46903857   -0.1652026
C         -2.04832566   0.33110927   -0.1988458
C         -5.75357566   -0.78897966   -0.0073867
C         -6.39194210   -2.18492718   0.1167857
C         -7.92538386   -2.04699794   0.1504288
O         -1.52012089   -0.70371211   -0.6822867
O         -1.29877909   1.28465877   0.2726463
H         -3.88414020   -1.39377451   0.8612141
H         -3.93422462   -1.52578893   -0.8803743
H         -3.86767677   1.06791861   0.6741414
H         -3.91776104   0.93590410   -1.0674470
H         -0.34286738   1.19867612   0.2516754
H         -6.03948492   -0.19009965   0.8319573
H         -6.08956937   -0.32211411   -0.9096310
H         -6.05594853   -2.65179267   1.0190301
H         -6.10603268   -2.78380722   -0.7225583
H         -8.26137745   -1.58013252   -0.7518155
H         -8.36892417   -3.01690953   0.2367046
H         -8.21129328   -1.44811784   0.9897729
C         3.50875597   0.53075000   -0.0784007
C         1.99747391   0.23620018   -0.1078449
C         4.29049905   -0.79607688   -0.0812644
C         5.80178110   -0.50152706   -0.0518202
C         6.58352418   -1.82835394   -0.0546840
C         8.09480624   -1.53380412   -0.0252401
C         8.87654930   -2.86063101   -0.0281040
O         1.20862464   1.04882338   -0.6564166
N         1.52327923   -0.88348865   0.4497190
H         0.54192702   -1.07475382   0.4306011
H         2.15014624   -1.52924834   0.8856459
H         4.02212027   -1.37003200   0.7809701
H         4.05199035   -1.34866271   -0.9659465
H         3.77713477   1.10470512   -0.9406352
H         3.74726466   1.08333584   0.8062814
H         6.04028980   0.05105873   0.8328618
H         6.07015986   0.07242811   -0.9140547
H         6.34501537   -2.38093976   -0.9393661
H         6.31514551   -2.40230907   0.8075504
H         8.33331507   -0.98121834   0.8594420
H         8.36318490   -0.95984896   -0.8874746
H         8.63804059   -3.41321673   -0.9127862
H         9.92659592   -2.65597627   -0.0076460
H         8.60817054   -3.43458624   0.8341304
