%chk=C:\Users\User\Desktop\gaussian\pentane\pentane.chk
# hf/3-21g geom=connectivity

Title Card Required

0 1
C         -4.62882000   -0.89353400   0.0001100
C         -3.85697800   0.41370000   0.0000700
C         -2.36524000   0.20961600   -0.0000500
C         -6.14480724   -0.62264163   0.0002090
C         -6.90553567   -1.96163090   0.0002432
C         -8.42152039   -1.69073989   0.0031405
C         -9.18225013   -3.02972821   0.0024001
C         -10.69823491   -2.75883715   0.0052614
C         -11.45896466   -4.09782546   0.0045136
C         -12.97494948   -3.82693436   0.0073494
C         -13.73567924   -5.16592267   0.0066020
C         -15.25166407   -4.89503156   0.0094286
O         -1.81555900   -0.87761900   -0.0001200
O         -1.70431700   1.37370300   0.0000100
H         -4.38257400   -1.48752800   0.8777300
H         -4.38268800   -1.48750100   -0.8775600
H         -4.09975000   1.02549500   0.8705100
H         -4.09988300   1.02552200   -0.8703000
H         -0.73466600   1.17793600   -0.0000400
H         -6.40713017   -0.06337359   0.8738828
H         -6.40724161   -0.06335561   -0.8734198
H         -6.64163781   -2.52174809   0.8728982
H         -6.64467730   -2.52006651   -0.8744010
H         -8.68533486   -1.13016375   -0.8692448
H         -8.68246056   -1.13276357   0.8780535
H         -8.91845355   -3.59029322   0.8747981
H         -8.92129135   -3.58771538   -0.8725003
H         -10.96202976   -2.19826730   -0.8671339
H         -10.95919473   -2.20085451   0.8801644
H         -11.19518218   -4.65838731   0.8769178
H         -11.19799176   -4.65581579   -0.8703806
H         -13.23873107   -3.26637231   -0.8650549
H         -13.23592260   -3.26894390   0.8822435
H         -13.47190149   -5.72648157   0.8790096
H         -13.47470159   -5.72391597   -0.8682889
H         -15.51544109   -4.33447338   -0.8629796
H         -15.78022305   -5.82536759   0.0089107
H         -15.51264176   -4.33703721   0.8843189
C         2.75374100   -0.77580800   -0.0000300
C         1.32993000   -0.31999200   -0.0001600
C         3.78077700   0.34236700   0.0000100
C         5.20315800   -0.20250900   0.0001400
C         6.23771309   0.93823451   0.0001965
C         7.65806789   0.34309401   0.0003151
C         8.69262298   1.48383752   0.0003741
C         10.11297779   0.88869702   0.0004896
C         11.14753287   2.02944053   0.0005511
C         12.56788768   1.43430003   0.0006635
C         13.60244277   2.57504354   0.0007274
C         15.02279757   1.97990304   0.0008367
O         1.00214400   0.85975800   -0.0000900
H         0.54934200   -1.09474700   -0.0000700
H         2.87656300   -1.43317400   -0.8686300
H         3.61770000   0.97683700   -0.8720000
H         3.61756100   0.97688600   0.8719800
H         2.87644300   -1.43313500   0.8686200
H         5.38502300   -0.81920500   0.8810600
H         5.38516500   -0.81925400   -0.8807000
H         6.10361876   1.54130148   0.8738263
H         6.10375145   1.54126847   -0.8734763
H         7.79216176   -0.25997186   -0.8733154
H         7.79202925   -0.25994120   0.8739872
H         8.55852947   2.08690192   0.8740057
H         8.55866053   2.08687404   -0.8732968
H         10.24707087   0.28563381   -0.8731429
H         10.24693992   0.28565914   0.8741597
H         11.01344016   2.63250225   0.8741847
H         11.01356962   2.63247973   -0.8731179
H         12.70197994   0.83123945   -0.8729709
H         12.70185063   0.83125953   0.8743317
H         13.46835087   3.17810265   0.8743630
H         13.46847870   3.17808535   -0.8729396
H         15.15688904   1.37684510   -0.8727996
H         15.74161182   2.77249756   0.0008829
H         15.15676132   1.37685989   0.8745030
