%chk=C:\Users\User\Desktop\gaussian\pentane\pentane.chk
# hf/3-21g geom=connectivity

Title Card Required

0 1
C         4.87566329   3.49335696   9.2190692
C         3.76546603   2.97676933   8.2851531
C         4.35272065   2.71385987   6.8860067
C         3.24222912   2.19857100   5.9517230
C         3.82971262   1.93464807   4.5528636
C         2.71774169   1.42599063   3.6167075
C         3.30717988   1.15311584   2.2203902
C         2.18584800   0.69158400   1.2710730
C         2.73191000   0.41847000   -0.1243650
C         1.66162300   -0.02873600   -1.1024340
O         1.03415100   -1.25943800   -0.7152410
H         3.51669300   -0.34339300   -0.0844000
H         3.19894900   1.31892100   -0.5312880
H         0.85167700   0.70027800   -1.1367340
H         2.07349900   -0.12734800   -2.1097910
H         1.71737300   -1.93618700   -0.6521510
H         1.42467400   1.47146300   1.2405280
H         1.72320100   -0.19623400   1.6980360
H         3.75091958   2.04906630   1.8392500
H         4.05209179   0.38824510   2.2909521
H         1.94896773   2.16635140   3.5408620
H         2.30436791   0.52180674   4.0122749
H         4.23862764   2.84233126   4.1606905
H         4.60158706   1.19700751   4.6235477
H         2.46705085   2.93266921   5.8803194
H         2.83764567   1.28982230   6.3459159
H         5.12824692   1.98007248   6.9568238
H         4.75679691   3.62300168   6.4922002
H         2.98929400   3.70985999   8.2141949
H         3.36223983   2.06742163   8.6793553
H         4.46765415   3.67594666   10.1912263
H         5.65187518   2.76030188   9.2899589
H         5.27883103   4.40274999   8.8249117
C         -1.65924184   9.67446399   -3.8573661
C         -1.61336350   8.74404153   -2.6310671
C         -1.80576617   7.28538630   -3.0859365
C         -1.76145235   6.35511621   -1.8594644
C         -1.95269535   4.89634823   -2.3144612
C         -1.91619403   3.96684161   -1.0871531
C         -2.09854991   2.50722019   -1.5430606
C         -2.11134400   1.58257800   -0.3116090
C         -2.30480700   0.12506100   -0.7092090
C         -2.26806800   -0.81153400   0.4892000
O         -1.03663100   -0.74738100   1.1960080
H         -1.52876400   -0.18274700   -1.4155290
H         -3.26257200   -0.00390700   -1.2204830
H         -3.03937000   -0.52669400   1.2068170
H         -2.47621200   -1.83708700   0.1665610
H         -0.33682500   -1.02361800   0.5821880
H         -1.17363000   1.71062200   0.2275380
H         -2.91641700   1.91104900   0.3472590
H         -3.02448007   2.41138812   -2.0706680
H         -1.29043213   2.23134560   -2.1878387
H         -2.70568984   4.23194946   -0.4153539
H         -0.97463512   4.07005986   -0.5894456
H         -2.89660165   4.79770083   -2.8086369
H         -1.16702693   4.62726179   -2.9891594
H         -2.54406591   6.62248570   -1.1805465
H         -0.81517270   6.45494937   -1.3700891
H         -1.02365590   7.01749705   -3.7652294
H         -2.75234832   7.18615052   -3.5748481
H         -2.39485873   9.01158577   -1.9509309
H         -0.66630940   8.84351571   -2.1431190
H         -1.52546563   10.68793609   -3.5413310
H         -0.87780534   9.40685834   -4.5375457
H         -2.60633109   9.57505962   -4.3452603
