%chk=C:\Users\User\Desktop\gaussian\pentane\pentane.chk
# hf/3-21g geom=connectivity

Title Card Required

0 1
C         -1.58914373   1.75318417   -0.1535825
C         -2.78663872   0.89145801   -0.5952088
C         -2.35587421   -0.58506122   -0.6722343
C         -1.87111243   -1.05130845   0.7131247
C         -2.01990824   3.22970337   -0.0765571
C         -0.82241323   4.09142951   0.3650691
C         -1.25317776   5.56794878   0.4420945
O         -0.75915280   -0.25113418   1.1232062
H         -1.56136605   -0.68827164   -1.3814623
H         -3.18789994   -1.18379304   -0.9790785
H         -2.66562059   -0.94809802   1.4223527
H         -1.57181501   -2.07720168   0.6596070
H         -0.04632306   -0.34373417   0.4868895
H         -3.12345372   1.21540900   -1.5577635
H         -3.58114688   0.99466844   0.1140191
H         -0.79463558   1.64997377   -0.8628106
H         -1.25232871   1.42923317   0.8089720
H         -2.35672326   3.55365430   -1.0391118
H         -2.81441637   3.33291386   0.6326708
H         -0.48559825   3.76747848   1.3276237
H         -0.02790505   3.98821906   -0.3441589
H         -0.42115203   6.16668062   0.7489387
H         -1.58999276   5.89189978   -0.5204601
H         -2.04768592   5.67115920   1.1513225
C         2.33367066   1.00150896   1.0675875
C         3.07737168   0.45073820   -0.1633309
C         2.07164546   -0.23603811   -1.1059088
C         3.33939690   1.68828528   2.0101654
C         2.59569594   2.23905606   3.2410839
C         3.60142209   2.92583233   4.1836618
O         1.42975961   -1.31168295   -0.4160750
H         3.81259057   -0.25961755   0.1524979
H         3.55766390   1.25559131   -0.6795003
H         1.33642658   0.47431769   -1.4217376
H         2.58837276   -0.61871650   -1.9611574
H         2.08939525   -1.94901150   -0.1327145
H         1.85337844   0.19665581   1.5837569
H         1.59845175   1.71186475   0.7517587
H         3.81968912   2.49313838   1.4939960
H         4.07461580   0.97792952   2.3259943
H         1.86047706   2.94941186   2.9252552
H         2.11540375   1.43420292   3.7572533
H         4.08171429   3.73068545   3.6674924
H         3.08469476   3.30851071   5.0389104
H         4.33664098   2.21547656   4.4994907
