%chk=C:\Users\User\Desktop\gaussian\pentane\pentane.chk
# hf/3-21g geom=connectivity

Title Card Required

0 1
C         0.70770501   9.95801465   -3.2217887
C         0.79530451   8.90481248   -2.1016586
C         1.04153785   7.51635742   -2.7206591
C         1.13250445   6.46366036   -1.6003226
C         1.37441334   5.07455934   -2.2195790
C         1.48375127   4.02463430   -1.0982839
C         1.69282257   2.63077170   -1.7187968
C         1.94165600   1.60268200   -0.5995500
C         2.13472400   0.20560400   -1.1815900
C         2.46514300   -0.87246800   -0.1501800
C         1.30426800   -1.30434500   0.7317400
O         0.84485100   -0.29548200   1.6337000
H         3.29497700   -0.53930700   0.4834000
H         2.81782500   -1.76855600   -0.6694200
H         0.43910300   -1.54753100   0.1136400
H         1.57815600   -2.20684700   1.2870900
H         1.57570200   -0.07926700   2.2230500
H         2.94198100   0.23786500   -1.9168700
H         1.23622000   -0.09582200   -1.7282200
H         2.83548800   1.91462400   -0.0557500
H         1.10201300   1.63346700   0.0904300
H         2.53783363   2.65546159   -2.3747287
H         0.82018462   2.35194059   -2.2716586
H         0.58386978   4.02601124   -0.5193958
H         2.31433759   4.26222656   -0.4669549
H         2.28310122   5.08916869   -2.7843558
H         0.55783644   4.82428843   -2.8641460
H         0.21728399   6.45262271   -1.0461117
H         1.94284953   6.70843280   -0.9458554
H         0.23308317   7.26992509   -3.3768391
H         1.95787273   7.52950303   -3.2729793
H         -0.12221020   8.89232526   -1.5512852
H         1.60259974   9.15023473   -1.4436750
H         -0.09926466   9.71230748   -3.8800652
H         0.53610531   10.92264326   -2.7917362
H         1.62540983   9.97086322   -3.7718367
C         -2.58612779   -1.84595367   0.0331577
C         -2.53969466   -0.64764853   0.9732613
C         -2.14763760   0.63821680   0.2567901
C         -2.09803502   1.83454517   1.1981931
C         -1.68954870   3.12242033   0.4591961
C         -1.65720364   4.29711160   1.4545122
C         -1.24705651   5.58465353   0.7158546
C         -1.21530913   6.75946490   1.7110482
C         -0.80481033   8.04693617   0.9724628
C         -0.77319363   9.22177381   1.9676296
C         -0.36271192   10.50924851   1.2290406
H         -1.37644721   1.65538317   1.9955680
H         -3.07369525   2.00592427   1.6557808
H         -2.85543386   0.82850058   -0.5554545
H         -1.16874475   0.49990679   -0.2112779
H         -3.51795401   -0.51159071   1.4429195
H         -1.82883079   -0.82907405   1.7833878
H         -1.61778321   -2.00214787   -0.4461898
H         -2.85070776   -2.76333954   0.5589602
H         -3.32035664   -1.68936851   -0.7584661
H         -2.39891348   3.32993856   -0.3145207
H         -0.71883911   2.99354246   0.0279034
H         -0.94870134   4.08906652   2.2288776
H         -2.62820482   4.42674710   1.8849206
H         -1.95532438   5.79246373   -0.0587882
H         -0.27587461   5.45516871   0.2858088
H         -0.50722423   6.55154237   2.4858282
H         -2.18655254   6.88911039   2.1409067
H         -1.51284410   8.25480654   0.1976221
H         0.16647259   7.91732385   0.5426836
H         -0.06515116   9.01390783   2.7424635
H         -1.74447351   9.35137861   2.3974178
H         -1.07075169   10.71711061   0.4542032
H         -0.34074955   11.32553283   1.9204866
H         0.60857023   10.37964582   0.7992568
