%chk=C:\Users\User\Desktop\gaussian\pentane\pentane.chk
# hf/3-21g geom=connectivity

Title Card Required

0 1
C         1.94165600   1.60268200   -0.5995500
C         2.13472400   0.20560400   -1.1815900
C         2.46514300   -0.87246800   -0.1501800
C         1.30426800   -1.30434500   0.7317400
C         3.20245377   2.04269285   0.1675089
C         3.42287592   3.55384861   -0.0310417
O         0.84485100   -0.29548200   1.6337000
H         3.29497700   -0.53930700   0.4834000
H         2.81782500   -1.76855600   -0.6694200
H         0.43910300   -1.54753100   0.1136400
H         1.57815600   -2.20684700   1.2870900
H         1.57570200   -0.07926700   2.2230500
H         2.94198100   0.23786500   -1.9168700
H         1.23622000   -0.09582200   -1.7282200
H         1.76549900   2.33049900   -1.3919000
H         1.10201300   1.63346700   0.0904300
H         3.07683809   1.83444821   1.2095045
H         4.05092751   1.50670030   -0.2035763
H         4.24532331   3.87665851   0.5725094
H         3.63717138   3.75077827   -1.0606999
H         2.53928341   4.08406748   0.2571114
C         -1.84059100   1.89451600   0.6471700
C         -1.91995300   0.80281800   -0.4119800
C         -2.40099800   -0.52506900   0.1588100
C         -2.47734100   -1.61903300   -0.8991600
C         -1.34229339   3.22576083   0.0546443
C         -1.28306217   4.29150672   1.1647241
H         -1.15611300   1.59758000   1.4421000
H         -2.82091400   2.07198800   1.0923000
H         -2.58960000   1.11154200   -1.2201800
H         -0.93436100   0.65907300   -0.8640800
H         -3.38612600   -0.38375500   0.6122800
H         -1.72776500   -0.82494700   0.9658900
H         -1.50281700   -1.77884500   -1.3645900
H         -2.80592500   -2.56868500   -0.4769500
H         -3.17578400   -1.34441600   -1.6910200
H         -2.01390845   3.54783873   -0.7135347
H         -0.36561283   3.08815256   -0.3601556
H         -0.61235658   3.96888736   1.9334704
H         -0.93571034   5.21614628   0.7532774
H         -2.25996550   4.42997199   1.5787136
