%chk=C:\Users\User\Desktop\gaussian\pentane\pentane.chk
# hf/3-21g geom=connectivity

Title Card Required

0 1
C         3.18126700   1.90108100   -0.3385080
C         1.89402500   1.91703800   0.4764970
C         0.64727900   1.91554700   -0.3992340
C         -0.64798400   1.91755000   0.4019460
C         -1.89463600   1.91169700   -0.4739030
C         -3.18200100   1.90132500   0.3409720
C         -4.42812564   1.89442590   -0.5638626
C         -5.69656197   1.88546189   0.3094007
H         -0.66626100   1.04349200   1.0613710
H         -0.66944100   2.79652200   1.0547650
H         -1.86579400   1.03802500   -1.1309490
H         -1.87727100   2.78878200   -1.1266700
H         -3.23869800   2.78079200   0.9838860
H         -3.22867600   1.01859900   0.9803130
H         0.66639300   1.03714600   -1.0528510
H         0.66776000   2.79017200   -1.0578550
H         1.86568800   1.04834400   1.1401750
H         1.87624600   2.79905500   1.1225750
H         4.06336600   1.90184700   0.3017540
H         3.23724800   2.77548800   -0.9883620
H         3.22837000   1.01337300   -0.9708510
H         -4.41485080   1.02150992   -1.1825237
H         -4.42589783   2.76877663   -1.1806331
H         -6.56237753   1.88093821   -0.3192827
H         -5.69892108   1.01097567   0.9259786
H         -5.70970307   2.75824358   0.9282540
C         3.17960483   -1.82311835   0.3609079
C         1.89690820   -1.85970871   -0.4605630
C         0.64599405   -1.88227051   0.4089079
C         -0.64499072   -1.90537111   -0.3987936
C         -1.89593714   -1.92484599   0.4707360
C         -3.17917464   -1.93389960   -0.3506676
C         -4.42978404   -1.95258648   0.5477904
C         -5.69375119   -1.96250895   -0.3319189
H         0.64633426   -1.00517336   1.0645740
H         0.67869743   -2.75788581   1.0657202
H         1.85662322   -0.99007319   -1.1223702
H         1.89786348   -2.74034014   -1.1087612
H         4.06474861   -1.80678985   -0.2749308
H         3.24773962   -2.69800794   1.0089468
H         3.20794313   -0.93627942   0.9956053
H         -0.67576959   -1.02986660   -1.0558451
H         -0.64724314   -2.78267130   -1.0541613
H         -1.88573786   -1.05335136   1.1312363
H         -1.86637416   -2.80401696   1.1202505
H         -3.21707713   -2.81165235   -0.9973081
H         -3.23816223   -1.04957267   -0.9867539
H         -4.43504947   -1.08204709   1.1699105
H         -4.41523722   -2.82921546   1.1611500
H         -5.68835523   -2.83291345   -0.9542266
H         -6.56267808   -1.97575752   0.2923330
H         -5.70843082   -1.08575002   -0.9450896
