%chk=C:\Users\User\Desktop\gaussian\pentane\pentane.chk
# hf/3-21g geom=connectivity

Title Card Required

0 1
C         2.85955242   5.69552045   -0.5838243
C         2.30767337   4.76730269   -1.6817502
C         2.28975262   3.31632113   -1.1660649
C         1.70725238   2.39273787   -2.2520149
C         1.81793386   0.92698698   -1.7927503
C         1.23151021   -0.01396165   -2.8408894
C         1.36599705   -1.49928542   -2.5077992
C         0.44300406   -2.00431719   -1.4100933
O         0.73116533   -1.47912593   -0.1125812
H         2.40379900   -1.72802035   -2.2400460
H         1.14440331   -2.08833077   -3.4027239
H         -0.58314446   -1.69875820   -1.6183009
H         0.46359688   -3.09832777   -1.3845023
H         1.62206606   -1.76063102   0.1225279
H         1.72593465   0.17073567   -3.7973269
H         0.17314507   0.21627187   -2.9952500
H         2.87584395   0.70810511   -1.6350199
H         1.30876935   0.82509617   -0.8375591
H         2.25410529   2.52352315   -3.1623703
H         0.67877318   2.63865303   -2.4152824
H         1.68412904   3.25807419   -0.2858789
H         3.28764885   3.00812872   -0.9334266
H         2.93165799   4.83002469   -2.5487041
H         1.31269169   5.06779927   -1.9359416
H         2.88398982   6.70184589   -0.9466078
H         2.22836088   5.64250113   0.2785480
H         3.84975486   5.38714454   -0.3205688
C         -2.47734100   -1.61903300   -0.8991600
C         -2.40099800   -0.52506900   0.1588100
C         -1.91995300   0.80281800   -0.4119800
C         -1.84059100   1.89451600   0.6471700
C         -1.34229339   3.22576083   0.0546443
C         -1.28306217   4.29150672   1.1647241
C         -0.78313523   5.62229637   0.5725485
C         -0.72449035   6.68820629   1.6825020
H         -1.15611300   1.59758000   1.4421000
H         -2.82091400   2.07198800   1.0923000
H         -2.58960000   1.11154200   -1.2201800
H         -0.93436100   0.65907300   -0.8640800
H         -3.38612600   -0.38375500   0.6122800
H         -1.72776500   -0.82494700   0.9658900
H         -1.50281700   -1.77884500   -1.3645900
H         -2.80592500   -2.56868500   -0.4769500
H         -3.17578400   -1.34441600   -1.6910200
H         -2.01390845   3.54783873   -0.7135347
H         -0.36561283   3.08815256   -0.3601556
H         -0.61235658   3.96888736   1.9334704
H         -2.25996550   4.42997199   1.5787136
H         -1.45360960   5.94469740   -0.1964908
H         0.19394410   5.48393473   0.1589400
H         -0.05420893   6.36568989   2.4516613
H         -0.37689881   7.61277879   1.2711071
H         -1.70161660   6.82674964   2.0959389
