%chk=C:\Users\User\Desktop\gaussian\pentane\pentane.chk
# hf/3-21g geom=connectivity

Title Card Required

0 1
C         3.56008100   0.05653800   0.0013290
C         2.05181600   0.06350500   -0.0001790
C         4.16056096   -1.36156551   -0.0011747
C         5.69772379   -1.26812874   -0.0012383
C         6.29820382   -2.68623310   -0.0031792
C         7.83536664   -2.59279624   -0.0033147
C         8.43584668   -4.01090068   -0.0051895
C         9.97300950   -3.91746382   -0.0053352
C         10.57348954   -5.33556826   -0.0072058
O         1.42945900   1.13226000   -0.0008190
N         1.43889900   -1.13417100   -0.0004780
H         3.90772900   0.59861200   -0.8755300
H         3.90587100   0.59455200   0.8814500
H         0.41627800   -1.18579400   -0.0012660
H         1.98081500   -1.97792100   -0.0002100
H         3.83502787   -1.88518928   -0.8756725
H         3.83528172   -1.88816735   0.8716275
H         6.02302326   -0.74186444   -0.8742367
H         6.02323594   -0.74416644   0.8730644
H         5.97294332   -3.21248002   0.8698441
H         5.97265205   -3.21021247   -0.8774570
H         8.16062865   -2.06658840   -0.8763610
H         8.16091623   -2.06877735   0.8709402
H         8.11058941   -4.53710560   0.8678602
H         8.11029169   -4.53492212   -0.8794409
H         10.29826604   -3.39126090   -0.8783866
H         10.29856457   -3.39343997   0.8689146
H         11.64151825   -5.27064781   -0.0073287
H         10.24824940   -5.86176332   0.8658563
H         10.24791743   -5.85959958   -0.8814449
C         -3.56005100   -0.05672700   0.0014750
C         -2.05178100   -0.06349500   -0.0001340
C         -4.16073210   1.36129165   0.0037791
C         -5.69787976   1.26763405   0.0060849
C         -6.29855614   2.68564696   0.0113076
C         -7.83570578   2.59200151   0.0100835
C         -8.43638257   4.01001122   0.0160706
C         -9.97353224   3.91636553   0.0149019
C         -10.57420902   5.33437532   0.0208733
O         -1.42931100   -1.13218400   -0.0009870
N         -1.43905900   1.13428300   -0.0007690
H         -3.90760500   -0.59573800   -0.8773320
H         -3.90578500   -0.59791100   0.8796490
H         -0.41647100   1.18622100   -0.0016260
H         -1.98116800   1.97791000   0.0004330
H         -3.83403893   1.88560888   0.8774283
H         -3.83676324   1.88729454   -0.8698713
H         -6.02468049   0.74507125   -0.8685747
H         -6.02174370   0.73988032   0.8787177
H         -5.97273536   3.21422479   -0.8600970
H         -5.97371022   3.20737680   0.8871918
H         -8.16149757   2.06296523   0.8812209
H         -8.16057976   2.07073193   -0.8660642
H         -8.11062061   4.53903403   -0.8550861
H         -8.11147811   4.53129405   0.8921991
H         -10.29929390   3.38735154   0.8860640
H         -10.29843637   3.39507345   -0.8612213
H         -10.24846350   5.86338160   -0.8502995
H         -11.64222861   5.26930971   0.0200826
H         -10.24928811   5.85567480   0.8969859
