%chk=C:\Users\User\Desktop\gaussian\pentane\pentane.chk
# hf/3-21g geom=connectivity

Title Card Required

0 1
C         -2.263474   1.030462   -0.48672
C         -2.098735   -0.418963   -0.14897
O         -1.801945   -0.837755   0.95349
H         -2.269297   -1.126499   -0.98097
H         -2.021046   1.654351   0.36897
H         -1.624458   1.282094   -1.33437
H         -3.294062   1.207350   -0.80039
C         1.380642   -1.938170   -0.19202
C         1.429001   -0.477832   -0.62384
C         1.486764   0.478436   0.56081
C         1.559389   1.938375   0.13066
H         0.508638   -2.124439   0.43546
H         2.269685   -2.195221   0.38529
H         1.333907   -2.609961   -1.04918
H         2.297161   -0.306813   -1.26689
H         0.550574   -0.241796   -1.23350
H         2.359631   0.231740   1.17135
H         0.610304   0.315620   1.19318
H         0.689544   2.211273   -0.46897
H         1.595844   2.609570   0.98850
H         2.447601   2.120928   -0.47587
