%chk=C:\Users\User\Desktop\gaussian\pentane\pentane.chk
# hf/3-21g geom=connectivity

Title Card Required

0 1
C         1.657858   -1.586637   -0.249025
C         2.102226   -0.351076   -0.494457
C         2.580502   0.599259   0.555538
H         1.322499   -2.233865   -1.047342
H         1.623835   -1.976129   0.761015
H         2.122384   0.000499   -1.521281
H         1.983496   1.512960   0.55444
H         2.520021   0.149260   1.54588
H         3.615421   0.892903   0.37319
C         -0.822034   2.071977   -0.32963
C         -1.233871   0.837552   0.46182
C         -1.810963   -0.254847   -0.42887
C         -2.165905   -1.513020   0.35240
H         -1.674771   2.491444   -0.86553
H         -0.060574   1.816172   -1.06848
H         -0.417305   2.851551   0.31625
H         -0.369125   0.435741   0.99655
H         -1.972440   1.111345   1.22052
H         -1.080925   -0.498257   -1.20511
H         -2.697973   0.129421   -0.94038
H         -2.896975   -1.292958   1.13176
H         -2.586076   -2.284247   -0.29301
H         -1.278370   -1.925079   0.83489
