%chk=C:\Users\User\Desktop\gaussian\pentane\pentane.chk
# hf/3-21g geom=connectivity

Title Card Required

0 1
C         -2.479286   1.014089   -0.31577
C         -2.105049   0.037537   0.78436
C         -1.440301   -1.211255   0.28159
O         -1.214112   -1.444894   -0.89047
H         -1.151055   -1.942351   1.05960
H         -1.425352   0.486726   1.51600
H         -1.596184   1.327710   -0.86915
H         -3.162987   0.550726   -1.02451
H         -2.957606   1.897963   0.10215
H         -2.979173   -0.279463   1.36261
C         2.270362   -1.565080   -0.00479
C         1.909988   -0.196318   0.55918
C         1.566777   0.811181   -0.53096
C         1.208449   2.181205   0.03148
H         3.139186   -1.491555   -0.66018
H         1.443851   -1.969684   -0.58988
H         2.508799   -2.276003   0.78634
H         1.060315   -0.288635   1.24354
H         2.738705   0.191293   1.15865
H         0.739528   0.420456   -1.12949
H         2.420050   0.903823   -1.20835
H         2.040524   2.595699   0.60243
H         0.958789   2.889254   -0.75870
H         0.349877   2.115042   0.70217
