%chk=C:\Users\User\Desktop\gaussian\pentane\pentane.chk
# hf/3-21g geom=connectivity

Title Card Required

0 1
C         -3.961862   0.622538   0.35641
C         -2.553353   0.159079   0.08789
O         -1.611251   0.552107   0.78136
N         -2.385244   -0.700140   -0.94214
H         -4.692950   0.186323   -0.32006
H         -4.218502   0.366393   1.38199
H         -3.989003   1.706611   0.26894
H         -1.447822   -1.024495   -1.15438
H         -3.163208   -0.991807   -1.502637
C         2.639644   1.502463   -0.72571
C         3.341166   0.390303   0.04852
C         2.418439   -0.451473   0.92835
C         1.478966   -1.383446   0.17848
O         0.463155   -0.703839   -0.55465
H         1.824447   0.200807   1.57702
H         3.027688   -1.074957   1.58965
H         2.039984   -1.966588   -0.55394
H         1.024060   -2.086038   0.88503
H         -0.058430   -0.166761   0.07585
H         4.111035   0.833487   0.68464
H         3.863865   -0.271746   -0.64811
H         2.092833   2.155605   -0.04357
H         3.364247   2.113241   -1.26484
H         1.925236   1.097979   -1.43803
