%chk=C:\Users\User\Desktop\gaussian\pentane\pentane.chk
# hf/3-21g geom=connectivity

Title Card Required

0 1
C         -1.957167   0.161319   0.14741
C         -3.290039   0.848256   0.11159
O         -1.168339   0.216060   1.07230
O         -1.728388   -0.530368   -0.98048
H         -0.859771   -0.981188   -0.88983
H         -3.429655   1.423490   1.01969
H         -3.342937   1.497064   -0.76048
H         -4.077255   0.102941   0.01387
C         1.951926   -0.285483   0.61176
C         1.388257   -1.652927   0.40436
C         1.765045   0.675080   -0.54971
C         2.364066   2.040841   -0.23922
O         0.611297   -1.966661   -0.48362
H         1.709774   -2.419986   1.12916
H         3.009912   -0.400894   0.86887
H         2.226715   0.253419   -1.44477
H         0.702257   0.779029   -0.76239
H         1.461175   0.099763   1.51396
H         1.882404   2.481602   0.63413
H         3.431656   1.962995   -0.02951
H         2.236631   2.726999   -1.07539
