%chk=C:\Users\User\Desktop\gaussian\pentane\pentane.chk
# hf/3-21g geom=connectivity

Title Card Required

0 1
C         2.59365600   -0.07794700   1.6550430
C         2.30959300   1.01603400   0.6155650
C         2.66526000   0.61925200   -0.8304140
C         1.56765400   -0.13427800   -1.5782940
O         1.16833800   -1.37469900   -0.9514330
H         3.59898000   0.02404800   -0.8412360
H         2.87423600   1.52544300   -1.4279580
H         0.64690900   0.46898900   -1.6046250
H         1.87771700   -0.33140500   -2.6201610
H         1.96002400   -1.92020800   -0.8380060
H         2.89241100   1.91318100   0.8854300
H         1.24484500   1.30512600   0.6627570
H         3.65635900   -0.37399400   1.6230520
H         2.37613800   0.28401600   2.6719620
H         1.97653900   -0.97178900   1.4874400
C         -1.94614200   1.86405200   0.1054450
C         -3.07644800   0.88834500   -0.2515240
C         -2.61475600   -0.54435800   -0.5637140
C         -2.07040000   -1.32433100   0.6375700
O         -0.79861600   -0.85859400   1.1097070
H         -1.84924500   -0.53568800   -1.3628220
H         -3.47426700   -1.11576700   -0.9614270
H         -2.76237200   -1.22458800   1.4908230
H         -2.01046700   -2.39938000   0.3829450
H         -0.13729600   -1.09532500   0.4340010
H         -3.62426600   1.27911200   -1.1272980
H         -3.80649300   0.85039400   0.5778460
H         -1.21049500   1.92009800   -0.7153800
H         -2.34345200   2.87946700   0.2665140
H         -1.41408500   1.54399600   1.0118900
