%chk=C:\Users\User\Desktop\gaussian\pentane\pentane.chk
# hf/3-21g geom=connectivity

Title Card Required

0 1
C         -2.451152   0.326206   -0.97761
C         -1.949129   -0.808432   -0.10685
O         -1.731128   -0.401484   1.24448
H         -3.424838   0.677085   -0.63259
H         -2.560686   -0.004628   -2.01095
H         -1.754201   1.162251   -0.94925
H         -2.639466   -1.655875   -0.14344
H         -0.979442   -1.158915   -0.45703
H         -2.579421   -0.127057   1.60878
C         0.947943   2.020092   0.28978
C         1.437442   0.801992   -0.48364
C         1.769474   -0.369454   0.43256
C         2.221840   -1.602447   -0.33965
H         1.714695   2.368016   0.98352
H         0.060689   1.767875   0.87145
H         0.699698   2.847806   -0.37519
H         0.673954   0.489190   -1.20255
H         2.321941   1.062078   -1.07224
H         0.891773   -0.605746   1.03941
H         2.554608   -0.063041   1.12937
H         3.111380   -1.385434   -0.93293
H         2.457140   -2.431741   0.32704
H         1.442699   -1.937745   -1.02666
