%chk=C:\Users\User\Desktop\gaussian\pentane\pentane.chk
# hf/3-21g geom=connectivity

Title Card Required

0 1
C         -2.634101   0.254117   0.41846
O         -1.867176   -0.238491   1.24177
N         -2.452571   0.228958   -0.91571
H         -3.123806   0.661924   -1.52253
H         -1.618019   -0.203678   -1.29506
H         -3.555312   0.766110   0.72534
C         1.047292   1.747047   -0.248669
C         2.304417   0.939277   0.060540
C         2.044786   -0.459268   0.616723
C         1.388812   -1.437069   -0.34675
O         0.015725   -1.153275   -0.60412
H         1.428724   -0.391148   1.51962
H         2.997830   -0.898656   0.92520
H         1.891200   -1.406228   -1.31521
H         1.485885   -2.454462   0.04460
H         -0.437922   -1.005979   0.247349
H         2.907535   1.487981   0.78764
H         2.916990   0.852317   -0.841514
H         0.389095   1.782994   0.62105
H         1.304853   2.770703   -0.52171
H         0.485315   1.304928   -1.067859
