%chk=C:\Users\User\Desktop\gaussian\pentane\pentane.chk
# hf/3-21g geom=connectivity

Title Card Required

0 1
C         3.078565   -0.082785   0.16435
C         1.600713   -0.412538   0.08486
C         3.391373   1.266779   -0.46390
O         0.889453   -0.015192   -0.83521
N         1.117056   -1.179260   1.09537
H         0.171028   -1.532769   1.02947
H         1.735088   -1.554645   1.79076
H         2.900337   2.070320   0.08330
H         4.463972   1.453423   -0.45984
H         3.031750   1.294188   -1.48947
H         3.412658   -0.121341   1.20248
H         3.606796   -0.877199   -0.36906
C         -2.359380   2.286063   0.51315
C         -2.085060   0.790041   0.59881
C         -2.230402   0.122390   -0.75576
C         -1.960769   -1.347175   -0.76511
O         -1.608848   -2.002253   0.20200
H         -2.102771   -1.849108   -1.73856
H         -3.234426   0.268972   -1.17135
H         -2.764752   0.319182   1.31151
H         -1.073381   0.618657   0.96654
H         -1.534391   0.557929   -1.48057
H         -1.660728   2.765480   -0.17335
H         -3.370131   2.480156   0.15128
H         -2.255523   2.764483   1.48638
