%chk=C:\Users\User\Desktop\gaussian\pentane\pentane.chk
# hf/3-21g geom=connectivity

Title Card Required

0 1
C         2.620491   1.859675   -0.44634
C         2.147817   0.631978   0.32125
C         1.684872   -0.470360   -0.61473
C         1.117218   -1.674431   0.07765
O         0.952977   -1.763390   1.28006
H         0.836434   -2.512755   -0.58555
H         0.905680   -0.112735   -1.29880
H         1.330725   0.895443   0.99316
H         2.948974   0.249211   0.95544
H         2.499939   -0.814957   -1.26081
H         3.447650   1.611437   -1.11263
H         1.815045   2.269599   -1.05777
H         2.959430   2.643904   0.22937
C         -2.150244   -1.526857   -0.63121
C         -2.073046   -0.205343   -0.81915
C         -1.629287   0.774224   0.22019
C         -2.777517   1.686722   0.65578
H         -2.510261   -2.184848   -1.41028
H         -1.857847   -1.972704   0.31157
H         -2.383278   0.207990   -1.77550
H         -1.227973   0.235406   1.08100
H         -0.820635   1.392362   -0.18112
H         -3.189972   2.225184   -0.19802
H         -3.580094   1.100476   1.10187
H         -2.439447   2.420456   1.38685
