%chk=C:\Users\User\Desktop\gaussian\pentane\pentane.chk
# hf/3-21g geom=connectivity

Title Card Required

0 1
C         -2.209968   -1.549883   -0.20865
C         -2.012724   -0.182929   -0.83887
C         -1.762911   0.910418   0.15871
O         -1.654224   0.734856   1.35777
H         -1.672903   1.926209   -0.26620
H         -1.162390   -0.167959   -1.52911
H         -1.341646   -1.829720   0.38422
H         -3.071065   -1.545418   0.45726
H         -2.368089   -2.307342   -0.97427
H         -2.877778   0.118525   -1.43771
C         1.415443   1.859204   -0.22319
C         1.720339   0.643239   -0.68823
C         1.536075   -0.628090   0.07773
C         2.880121   -1.270499   0.42649
H         1.601992   2.748190   -0.81013
H         0.976895   1.984895   0.75919
H         2.167204   0.555581   -1.67532
H         0.966427   -0.426821   0.98720
H         0.952675   -1.333879   -0.52060
H         3.460070   -1.470511   -0.47505
H         3.465403   -0.605773   1.06091
H         2.738748   -2.213584   0.95354
