%chk=C:\Users\User\Desktop\gaussian\pentane\pentane.chk
# hf/3-21g geom=connectivity

Title Card Required

0 1
C         -2.215016   1.378784   -0.65281
C         -2.252448   -0.142485   -0.71109
C         -2.116278   -0.781791   0.66177
O         -0.897788   -0.433360   1.31268
H         -1.448923   -0.513934   -1.35378
H         -3.191212   -0.482878   -1.15618
H         -2.910877   -0.426688   1.31920
H         -2.211351   -1.869551   0.58186
H         -0.173756   -0.756510   0.75792
H         -2.301834   1.816139   -1.64692
H         -3.036713   1.759399   -0.04459
H         -1.284005   1.722853   -0.20557
C         1.555588   -1.822020   -0.46653
C         1.799183   -0.540940   -0.76849
C         2.650706   0.383847   0.04160
C         1.885926   1.635165   0.47692
H         0.931313   -2.440643   -1.09719
H         1.990451   -2.279624   0.41362
H         1.345024   -0.119257   -1.66188
H         3.036152   -0.148387   0.91334
H         3.514038   0.684035   -0.55858
H         1.501780   2.171746   -0.39161
H         1.040087   1.373759   1.11199
H         2.536165   2.313060   1.02868
