%chk=C:\Users\User\Desktop\gaussian\pentane\pentane.chk
# hf/3-21g geom=connectivity

Title Card Required

0 1
C         1.16247300   1.98798700   -0.12440300
C         2.19033800   1.16461500   0.10223100
C         2.35879800   -0.17956600   -0.53196300
C         2.47776600   -1.28976100   0.51266000
H         1.09039400   2.94804900   0.36807900
H         0.37443600   1.71564600   -0.81535800
H         2.96252000   1.46886700   0.80406400
H         1.51476000   -0.37330000   -1.19692400
H         3.26155200   -0.17666800   -1.14910500
H         3.32304700   -1.10557800   1.17666100
H         1.57809200   -1.34468400   1.12552500
H         2.62856900   -2.26038800   0.04028300
C         -1.14767200   -1.90084000   -0.48419000
C         -1.40591300   -0.81482200   0.25014100
C         -2.75441900   -0.18244500   0.38767900
C         -2.75713300   1.25870300   -0.12377700
H         -0.14867800   -2.30882200   -0.55594900
H         -1.93684800   -2.40787200   -1.02580700
H         -0.58899400   -0.32564700   0.77425300
H         -3.49219500   -0.77694000   -0.15483100
H         -3.04981500   -0.18610300   1.44028000
H         -2.02542900   1.86051800   0.41605800
H         -2.50110500   1.28942300   -1.18286200
H         -3.73573200   1.72027600   0.00535700
