%chk=C:\Users\User\Desktop\gaussian\pentane\pentane.chk
# hf/3-21g geom=connectivity

Title Card Required

0 1
C         -0.64678260   1.94071990   0.4344225
C         -1.87836005   1.93545434   -0.4901255
C         -3.16057033   1.93722901   0.3628302
C         0.63542771   1.93894521   -0.4185332
C         1.86700523   1.94421076   0.5060148
C         3.14921556   1.94243610   -0.3469409
C         -4.39214779   1.93196347   -0.5617179
C         4.38079303   1.94770165   0.5776072
C         -5.67435809   1.93373813   0.2912379
C         -6.90593527   1.92847446   -0.6333105
H         -0.66325882   1.06952207   1.0554240
H         -0.66548635   2.81680935   1.0484400
H         -1.85965630   1.05936489   -1.1041430
H         -1.86188384   2.80665219   -1.1111270
H         -3.17927407   2.81331846   0.9768476
H         -3.17704652   1.06603115   0.9838316
H         0.65413144   1.06285575   -1.0325506
H         0.65190391   2.81014306   -1.0395346
H         1.85052903   1.07301289   1.1270163
H         1.84830148   2.82030020   1.1200323
H         3.16569179   2.81363396   -0.9679423
H         3.16791932   1.06634665   -0.9609583
H         -4.37344404   1.05587402   -1.1757353
H         -4.37567160   2.80316133   -1.1827193
H         4.36431732   1.07650292   1.1986074
H         5.27167923   1.94647039   -0.0150311
H         4.36208858   2.82379020   1.1916259
H         -5.69083449   1.06253964   0.9122384
H         -5.69306145   2.80982692   0.9052563
H         -6.88723167   1.05238557   -1.2473288
H         -7.79682166   1.92970777   -0.0406724
H         -6.88945835   2.79967285   -1.2543112
C         0.63613288   -1.94039720   0.4185306
C         1.86772256   -1.94273693   -0.5060131
C         3.14992139   -1.94376870   0.3469611
C         -0.64606599   -1.93936540   -0.4344436
C         -1.87765574   -1.93702567   0.4901001
C         -3.15985464   -1.93599389   -0.3628740
C         -4.39144438   -1.93365416   0.5616697
C         4.38151115   -1.94610842   -0.5775826
C         -5.67364324   -1.93262240   -0.2913045
C         -6.90523268   -1.93028050   0.6332396
H         0.65486716   -1.06629251   1.0353693
H         0.65256213   -2.81359313   1.0367207
H         1.85129332   -1.06954101   -1.1242032
H         1.84898830   -2.81684162   -1.1228518
H         3.16635061   -2.81696464   0.9651511
H         3.16865563   -1.06966399   0.9637997
H         -0.66249520   -1.06616947   -1.0526336
H         -0.66480023   -2.81347009   -1.0512823
H         -1.85892148   -1.06292096   1.1069388
H         -1.86122649   -2.81022161   1.1082902
H         -3.17858890   -2.81009859   -0.9797127
H         -3.17628388   -1.06279795   -0.9810641
H         -4.37271014   -1.05954945   1.1785084
H         -4.37501516   -2.80685009   1.1798597
H         5.27238937   -1.94682468   0.0150685
H         4.36277681   -2.82021340   -1.1944209
H         4.36508184   -1.07291279   -1.1957731
H         -5.69237779   -2.80672784   -0.9081421
H         -5.69007199   -1.05942723   -0.9094956
H         -7.79611111   -1.92956334   0.0405887
H         -6.88880370   -2.80347577   1.2514306
H         -6.88649761   -1.05617516   1.2500774
