%chk=C:\Users\User\Desktop\gaussian\pentane\pentane.chk
# hf/3-21g geom=connectivity

Title Card Required

0 1
C         -3.012679   -1.309157   0.28023
C         -1.715541   -1.205281   -0.51216
C         -0.493451   -1.074797   0.38802
C         0.806363   -0.907193   -0.38719
C         2.034656   -0.831260   0.51096
C         3.317489   -0.595376   -0.27635
H         -0.422768   -1.958798   1.03033
H         -0.626438   -0.217964   1.05716
H         -1.598318   -2.086688   -1.14826
H         -1.760580   -0.343079   -1.18242
H         -3.878098   -1.410525   -0.37422
H         -3.160469   -0.420913   0.89636
H         -2.991613   -2.173253   0.94563
H         0.923455   -1.741398   -1.08667
H         0.746913   0.000149   -0.99768
H         2.115789   -1.758648   1.08415
H         1.897681   -0.029555   1.24194
H         4.189163   -0.553263   0.37625
H         3.264085   0.345169   -0.82643
H         3.478753   -1.394547   -1.00099
C         -1.072492   2.607483   -0.39571
C         0.206009   2.868315   0.39189
H         -0.851452   2.209701   -1.38592
H         -1.647254   3.523535   -0.52798
H         -1.710923   1.886600   0.11458
H         0.840686   3.593472   -0.11633
H         0.784633   1.953670   0.51819
H         -0.015368   3.259923   1.38414
