%chk=C:\Users\User\Desktop\gaussian\pentane\pentane.chk
# hf/3-21g geom=connectivity

Title Card Required

0 1
C         -1.327092   2.241538   -0.06189
C         -1.199397   0.778375   -0.46574
C         -1.102155   -0.132013   0.74516
C         -1.011693   -1.593689   0.41577
O         -1.018117   -2.046722   -0.71269
H         -0.936118   -2.272309   1.28621
H         -0.229218   0.114002   1.36116
H         -0.318786   0.632955   -1.09326
H         -2.055129   0.475833   -1.07075
H         -1.965782   -0.004779   1.40854
H         -2.223295   2.403478   0.53844
H         -0.469263   2.561514   0.53126
H         -1.388431   2.889071   -0.93557
C         2.614143   0.858151   -0.01050
C         2.448507   -0.657066   -0.00308
H         1.703475   1.360064   0.31630
H         2.847668   1.222623   -1.01021
H         3.419551   1.171178   0.65291
H         1.651848   -0.974874   -0.67501
H         2.209969   -1.024175   0.99551
H         3.364571   -1.152577   -0.32223
