%chk=C:\Users\User\Desktop\gaussian\pentane\pentane.chk
# hf/3-21g geom=connectivity

Title Card Required

0 1
C         1.950648   -2.043035   -0.41623
C         1.549365   -0.878953   0.48106
C         1.095697   0.338550   -0.31393
C         0.642500   1.495122   0.56741
C         0.238040   2.721341   -0.24168
H         1.111758   -2.357901   -1.03880
H         2.765954   -1.755546   -1.08143
H         2.278963   -2.905001   0.16405
H         2.391213   -0.595980   1.11865
H         0.743880   -1.189986   1.15123
H         1.914600   0.674039   -0.95899
H         0.276339   0.051323   -0.98167
H         1.449422   1.758508   1.25663
H         -0.196421   1.164690   1.18654
H         -0.573092   2.482144   -0.93093
H         -0.096990   3.535620   0.40041
H         1.077877   3.085214   -0.83497
C         -2.263551   -1.381700   0.34155
C         -2.847696   -0.145522   -0.33186
H         -1.984974   -1.173463   1.37431
H         -1.370806   -1.729815   -0.17740
H         -2.981453   -2.201137   0.35128
H         -2.134136   0.677802   -0.33116
H         -3.745815   0.195458   0.18190
H         -3.116334   -0.350791   -1.36754
