%chk=C:\Users\User\Desktop\gaussian\pentane\pentane.chk
# hf/3-21g geom=connectivity

Title Card Required

0 1
C         2.38723200   0.70481300   -0.5950490
C         1.82132500   -0.65421500   -0.2412680
O         1.11029100   -0.63632100   1.0068890
H         3.11631400   1.02685000   0.1499270
H         1.58904600   1.44306300   -0.6488200
H         2.89223700   0.66242100   -1.5602250
H         1.08329800   -0.96623400   -0.9774230
H         2.60639500   -1.41264400   -0.2059230
H         1.72667800   -0.36042600   1.6943330
C         -2.18408100   -0.87714400   -0.5892830
C         -2.25493800   0.42116100   0.1940310
O         -1.01149300   1.11071100   0.2073670
H         -1.46851900   -1.56012000   -0.1299300
H         -1.86990300   -0.68199700   -1.6139050
H         -3.15740700   -1.36901400   -0.6110120
H         -2.96955200   1.10314300   -0.2650860
H         -2.59687900   0.22496800   1.2152840
H         -0.35931700   0.52717700   0.6281440
