%chk=C:\Users\User\Desktop\gaussian\pentane\pentane.chk
# hf/3-21g geom=connectivity

Title Card Required

0 1
C         -3.342805   0.794306   -0.18219
C         -2.505326   -0.279849   0.48818
C         -1.086056   -0.308012   -0.00710
O         -0.639716   0.443418   -0.86159
O         -0.359946   -1.255453   0.59672
H         -3.378194   0.641241   -1.25865
H         -4.360168   0.776895   0.20440
H         -2.921262   1.781296   -0.00388
H         -2.921054   -1.275909   0.32670
H         -2.466265   -0.146075   1.57059
H         0.557546   -1.207397   0.22485
C         2.597703   1.023309   0.86526
C         3.025317   0.055244   -0.22018
O         1.919519   -0.679174   -0.75657
H         1.896898   1.759095   0.47058
H         3.463727   1.554261   1.26085
H         2.114146   0.492375   1.68425
H         3.538175   0.582517   -1.02738
H         3.708666   -0.693850   0.17489
H         1.275928   -0.044766   -1.11952
