%chk=C:\Users\User\Desktop\gaussian\pentane\pentane.chk
# hf/3-21g geom=connectivity

Title Card Required

0 1
C         0.025404   2.472971   -0.17258
C         -1.030989   1.725138   0.15944
C         -1.367399   0.407233   -0.46019
C         -1.349052   -0.733510   0.55871
C         -1.719503   -2.069213   -0.07309
H         0.706964   2.157147   -0.95290
H         0.229650   3.412412   0.32204
H         -1.691471   2.072517   0.94933
H         -2.364688   0.454963   -0.90949
H         -0.662177   0.191608   -1.26727
H         -0.355374   -0.792487   1.00827
H         -2.044386   -0.500486   1.36923
H         -2.721330   -2.029365   -0.50265
H         -1.025417   -2.324212   -0.87520
H         -1.698795   -2.877355   0.65743
C         2.327634   -0.838315   -0.70001
C         2.591856   -0.337023   0.71490
H         2.385114   -0.025381   -1.42365
H         1.336647   -1.284534   -0.78173
H         3.054986   -1.594283   -0.99432
H         1.873086   0.430559   0.99996
H         3.589214   0.093573   0.79887
H         2.520280   -1.148350   1.43894
