%chk=C:\Users\User\Desktop\gaussian\pentane\pentane.chk
# hf/3-21g geom=connectivity

Title Card Required

0 1
C         1.613367   1.127693   0.06799
C         1.468788   -0.338512   0.33650
O         1.309194   -1.181514   -0.52481
H         1.512623   -0.636005   1.40005
H         1.579416   1.327727   -0.99909
H         0.811618   1.666267   0.57637
H         2.555246   1.481550   0.49009
C         -1.953185   -0.245223   0.71939
C         -1.982254   0.343806   -0.68602
H         -2.925500   -0.160614   1.20342
H         -1.230669   0.270099   1.35329
H         -1.679710   -1.299204   0.69667
H         -2.220413   1.406981   -0.66516
H         -2.734377   -0.150857   -1.29914
H         -1.022085   0.219589   -1.18524
