%chk=C:\Users\User\Desktop\gaussian\pentane\pentane.chk
# hf/3-21g geom=connectivity

Title Card Required

0 1
C         -2.136865   0.331211   0.09133
O         -1.402208   1.068142   -0.56136
N         -1.801865   -0.898262   0.52761
H         -2.463879   -1.447340   1.04375
H         -0.878919   -1.261146   0.31271
H         -3.152553   0.636408   0.37441
C         2.109362   0.567435   0.886079
C         2.088812   -0.256121   -0.38773
O         0.775777   -0.701404   -0.71919
H         1.492886   1.459462   0.77400
H         3.126447   0.881475   1.12293
H         1.722472   -0.014599   1.72156
H         2.509936   0.317495   -1.21777
H         2.689189   -1.157327   -0.272381
H         0.211074   0.084355   -0.846132
