%chk=C:\Users\User\Desktop\gaussian\pentane\pentane.chk
# hf/3-21g geom=connectivity

Title Card Required

0 1
C         1.614871   1.261418   0.03769
C         1.604923   -0.003650   0.46534
C         1.417469   -1.194143   -0.41880
H         1.753093   2.085548   0.72328
H         1.484294   1.496581   -1.01115
H         1.738253   -0.196059   1.52523
H         0.524368   -1.753288   -0.13321
H         1.317368   -0.894612   -1.46139
H         2.263456   -1.878140   -0.33688
C         -2.091873   -0.341899   0.66720
C         -2.009392   0.425552   -0.64640
H         -2.906733   0.027491   1.28898
H         -1.167585   -0.239584   1.23493
H         -2.264447   -1.404039   0.49425
H         -1.826274   1.484802   -0.47028
H         -2.934558   0.335516   -1.21493
H         -1.197225   0.052112   -1.26906
