%chk=C:\Users\User\Desktop\gaussian\pentane\pentane.chk
# hf/3-21g geom=connectivity

Title Card Required

0 1
C         1.193326   1.709505   0.66963
C         1.099140   1.103324   -0.72736
C         1.719092   -0.288076   -0.85819
C         0.896537   -1.423006   -0.26937
O         0.739857   -1.360029   1.14920
H         2.717985   -0.293013   -0.40731
H         1.861577   -0.520519   -1.91777
H         -0.117819   -1.390594   -0.66816
H         1.334654   -2.383975   -0.55664
H         1.617618   -1.415014   1.54200
H         1.597836   1.770235   -1.43430
H         0.051805   1.053982   -1.03816
H         2.235166   1.762814   0.99172
H         0.792560   2.723307   0.67910
H         0.644900   1.115647   1.39628
C         -2.431217   0.400411   0.62232
C         -2.912568   -0.195197   -0.69609
H         -1.550452   -0.120093   0.99709
H         -3.206129   0.332274   1.38526
H         -2.172669   1.453077   0.50758
H         -3.150194   -1.252967   -0.58647
H         -2.153091   -0.106400   -1.47329
H         -3.808466   0.309705   -1.05617
