%chk=C:\Users\User\Desktop\gaussian\pentane\pentane.chk
# hf/3-21g geom=connectivity

Title Card Required

0 1
C         1.84825400   -0.68442800   0.33532500
C         1.84830300   0.68442600   -0.33481000
H         0.96925500   -0.81633900   0.96537000
H         2.72888900   -0.81468200   0.96319700
H         1.84689500   -1.48518200   -0.40342900
H         1.84672500   1.48518000   0.40394400
H         0.96945100   0.81629100   -0.96506800
H         2.72908600   0.81472300   -0.96246600
C         -1.84825900   -0.68442600   -0.3353260
C         -1.84829800   0.68442800   0.3348100
H         -1.84691700   -1.48518000   0.4034290
H         -0.96925700   -0.81634700   -0.9653620
H         -2.72889000   -0.81466900   -0.9632050
H         -0.96944900   0.81628400   0.9650740
H         -2.72908300   0.81473500   0.9624600
H         -1.84670500   1.48518200   -0.4039440
