%chk=C:\Users\User\Desktop\gaussian\pentane\pentane.chk
# hf/3-21g geom=connectivity

Title Card Required

0 1
C         -1.471124   -1.260248   -0.21682
C         -1.624682   0.169995   0.01954
C         -1.748765   1.362822   0.21517
H         -0.654506   -1.447722   -0.91310
H         -1.249758   -1.781596   0.71329
H         -2.383545   -1.680469   -0.63725
H         -1.858326   2.404872   0.38556
C         1.906192   -0.376495   0.64995
C         2.006877   0.471856   -0.61216
H         1.765508   -1.430098   0.40857
H         1.065011   -0.059123   1.26524
H         2.810820   -0.296109   1.25183
H         1.093694   0.410266   -1.20305
H         2.837944   0.150833   -1.23939
H         2.162167   1.521564   -0.36578
