%chk=C:\Users\User\Desktop\gaussian\pentane\pentane.chk
# hf/3-21g geom=connectivity

Title Card Required

0 1
C         -0.552212   1.897020   -0.15146
C         -0.817107   0.724880   0.43305
C         -1.126161   -0.542368   -0.29710
C         -2.520872   -1.066285   0.04681
H         -0.348940   2.785415   0.42999
H         -0.535213   1.988924   -1.23063
H         -0.834257   0.673234   1.51881
H         -1.043341   -0.369841   -1.37235
H         -0.381211   -1.298829   -0.03680
H         -2.613764   -1.241106   1.11912
H         -3.284228   -0.344317   -0.24181
H         -2.724845   -2.005805   -0.46577
C         2.645351   -0.446727   0.66947
C         2.588420   -0.338029   -0.65833
H         3.402369   -1.047686   1.15430
H         1.933356   0.069064   1.29939
H         1.827595   0.266862   -1.13266
H         3.297974   -0.846869   -1.29623
