%chk=C:\Users\User\Desktop\gaussian\pentane\pentane.chk
# hf/3-21g geom=connectivity

Title Card Required

0 1
C         -2.365562   -0.933094   -0.31593
C         -1.377979   -0.382524   0.70415
C         -0.915909   1.024600   0.35993
O         -0.251448   1.092396   -0.89816
H         -0.502396   -1.034777   0.76920
H         -1.830364   -0.362772   1.69939
H         -1.777745   1.687632   0.27316
H         -0.273655   1.417944   1.15477
H         0.598730   0.646429   -0.79071
H         -2.665122   -1.951166   -0.07002
H         -3.264715   -0.316447   -0.34937
H         -1.925007   -0.933812   -1.31117
C         2.604702   -0.790079   -0.44752
C         2.595389   0.022388   0.61226
H         2.108388   -1.750542   -0.42429
H         3.113345   -0.515539   -1.36135
H         3.094649   0.981176   0.58998
H         2.091627   -0.255043   1.52825
