%chk=C:\Users\User\Desktop\gaussian\pentane\pentane.chk
# hf/3-21g geom=connectivity

Title Card Required

0 1
C         -1.652648   0.089061   0.00008
O         -1.058638   -1.100850   0.00022
O         -1.089787   1.163725   -0.00009
H         -2.739727   -0.026728   0.00015
H         -0.080595   -0.957356   0.000166
C         2.023089   0.515050   -0.00017
O         1.676728   -0.655175   -0.00006
H         3.088359   0.775646   -0.00029
H         1.282888   1.322177   -0.00010
