%chk=C:\Users\User\Desktop\gaussian\pentane\pentane.chk
# hf/3-21g geom=connectivity

Title Card Required

0 1
C         2.487676   0.604521   0.00029
C         0.991376   0.368178   0.00012
C         3.385156   -0.624743   -0.00017
O         0.218688   1.335600   0.00009
N         0.558575   -0.904348   -0.00007
H         -0.444636   -1.100787   -0.00020
H         1.212163   -1.664800   -0.00013
H         3.223216   -1.239415   -0.88594
H         4.431995   -0.326206   -0.00008
H         3.223263   -1.240076   0.88514
H         2.689461   1.230644   -0.86972
H         2.689364   1.229885   0.87089
C         -3.033258   -0.319376   -0.00008
O         -2.305221   -1.312714   -0.00035
N         -2.603784   0.950228   0.00017
H         -3.275466   1.696020   0.00034
H         -1.599437   1.158242   0.00016
H         -4.126894   -0.419235   -0.00009
