%chk=C:\Users\User\Desktop\gaussian\pentane\pentane.chk
# hf/3-21g geom=connectivity

Title Card Required

0 1
C         -3.199278   -0.788116   0.00003
C         -2.418675   0.513841   0.00003
C         -0.930989   0.309213   0.00000
O         -0.403022   -0.799483   -0.00005
O         -0.256641   1.449050   -0.00004
H         -2.960007   -1.383701   0.878307
H         -4.268478   -0.585262   0.00006
H         -2.960050   -1.383682   -0.87825
H         -2.655493   1.128482   0.87017
H         -2.655536   1.128500   -0.87007
H         0.718357   1.255873   -0.00013
C         2.879893   -0.183539   -0.00000
O         2.210925   -1.314878   -0.00005
O         2.399646   0.940616   0.00006
H         3.958325   -0.353680   0.00025
H         1.229913   -1.117368   -0.00014
