%chk=C:\Users\User\Desktop\gaussian\pentane\pentane.chk
# hf/3-21g geom=connectivity

Title Card Required

0 1
C         2.495472   0.029361   -0.00005
O         1.911754   -1.149744   -0.00031
O         1.940718   1.116694   0.00024
H         3.584298   -0.070334   -0.00014
H         0.910673   -1.047886   -0.00014
C         -2.946880   -0.188240   -0.00013
C         -1.449399   -0.043241   0.00006
O         -0.725779   -1.049845   0.00042
N         -0.951260   1.202999   -0.00017
H         -3.467106   0.766317   -0.00101
H         -3.236868   -0.761247   -0.87819
H         -3.237256   -0.759819   0.87873
H         0.059736   1.330667   0.00007
H         -1.563358   1.997198   -0.00023
