%chk=C:\Users\User\Desktop\gaussian\pentane\pentane.chk
# hf/3-21g geom=connectivity

Title Card Required

0 1
C         -3.18200100   1.90132500   0.3409720
C         -1.89463600   1.91169700   -0.4739030
C         -0.64798400   1.91755000   0.4019460
C         0.64727900   1.91554700   -0.3992340
C         1.89402500   1.91703800   0.4764970
C         3.18126700   1.90108100   -0.3385080
H         -0.66626100   1.04349200   1.0613710
H         -0.66944100   2.79652200   1.0547650
H         -1.86579400   1.03802500   -1.1309490
H         -1.87727100   2.78878200   -1.1266700
H         -4.06397500   1.89644200   -0.2994460
H         -3.23869800   2.78079200   0.9838860
H         -3.22867600   1.01859900   0.9803130
H         0.66639300   1.03714600   -1.0528510
H         0.66776000   2.79017200   -1.0578550
H         1.86568800   1.04834400   1.1401750
H         1.87624600   2.79905500   1.1225750
H         4.06336600   1.90184700   0.3017540
H         3.23724800   2.77548800   -0.9883620
H         3.22837000   1.01337300   -0.9708510
C         3.18196600   -1.90232000   0.3384820
C         1.89469300   -1.91592800   -0.4765070
C         0.64797800   -1.91634900   0.3992650
C         -0.64727200   -1.91632400   -0.4019120
C         -1.89396400   -1.91365800   0.4739190
C         -3.18128700   -1.89972400   -0.3409980
H         0.66724700   -1.03950300   1.0549840
H         0.66839500   -2.79251400   1.0558410
H         1.86656400   -1.04560600   -1.1380400
H         1.87669400   -2.79633200   -1.1247650
H         4.06404100   -1.90165500   -0.3018150
H         3.23777700   -2.77838900   0.9861060
H         3.22929600   -1.01622900   0.9730920
H         -0.66576800   -1.04030400   -1.0587370
H         -0.66845500   -2.79333900   -1.0573230
H         -1.86491300   -1.04259000   1.1344220
H         -1.87678700   -2.79332100   1.1232130
H         -4.06330900   -1.89728700   0.2993640
H         -3.23807800   -2.77655800   -0.9875020
H         -3.22772400   -1.01438400   -0.9767150
