%chk=C:\Users\User\Desktop\gaussian\pentane\pentane.chk
# hf/3-21g geom=connectivity

Title Card Required

0 1
C         -0.00027200   -0.00005100   1.8450150
H         0.00080200   1.02362300   1.4815100
H         0.88526900   -0.51317000   1.4809010
H         -0.88787600   -0.51074500   1.4825130
H         0.00071200   0.00008500   2.9313270
C         0.00027200   0.00005200   -1.8450150
H         -0.00050900   -0.00007100   -2.9313310
H         -0.88678700   0.51065600   -1.4810570
H         0.00203100   -1.02363300   -1.4815270
H         0.88635700   0.51325400   -1.4823360
