%chk=C:\Users\User\Desktop\gaussian\pentane\pentane.chk
# hf/3-21g geom=connectivity

Title Card Required

0 1
C         3.118867   -0.439850   -0.66595
C         1.887749   -1.095786   -0.06929
O         1.550623   -0.557081   1.20496
H         2.945368   0.623014   -0.83508
H         3.376228   -0.900583   -1.62065
H         3.963964   -0.543748   0.01236
H         1.039111   -1.010793   -0.75724
H         2.067919   -2.157088   0.09728
H         1.176609   0.321160   1.05153
C         0.321329   2.234929   -0.19534
C         -0.834052   1.730308   0.25411
C         -1.650284   0.700043   -0.45761
C         -1.942395   -0.524156   0.41207
C         -2.767683   -1.563459   -0.33538
H         0.732471   1.918808   -1.14657
H         0.865974   2.984179   0.36297
H         -1.220164   2.079278   1.20829
H         -2.603742   1.144388   -0.76242
H         -1.136168   0.394326   -1.37333
H         -1.001095   -0.960549   0.75122
H         -2.476700   -0.201446   1.30932
H         -3.720084   -1.143769   -0.66226
H         -2.236924   -1.913457   -1.22181
H         -2.978926   -2.429248   0.29109
