%chk=C:\Users\User\Desktop\gaussian\pentane\pentane.chk
# hf/3-21g geom=connectivity

Title Card Required

0 1
C         -2.414737   -0.808951   1.15542
C         -2.524839   -0.346536   -0.26397
O         -2.061558   -0.940495   -1.21893
H         -3.072131   0.601238   -0.41321
H         -1.859957   -1.741227   1.21374
H         -1.918974   -0.033191   1.74131
H         -3.415650   -0.938933   1.57060
C         -0.322486   2.125840   -0.42105
C         0.413492   1.413377   0.43888
C         0.989786   0.065858   0.14737
C         2.518920   0.095706   0.09550
C         3.106096   -1.287418   -0.15454
H         -0.568300   1.731892   -1.39962
H         -0.685901   3.112598   -0.16804
H         0.646906   1.843850   1.40960
H         0.684776   -0.643540   0.92422
H         0.593675   -0.308838   -0.79934
H         2.830150   0.785134   -0.69224
H         2.904344   0.500125   1.03505
H         2.821664   -1.977872   0.64043
H         2.740189   -1.697010   -1.09653
H         4.194281   -1.257509   -0.20021
