%chk=C:\Users\User\Desktop\gaussian\pentane\pentane.chk
# hf/3-21g geom=connectivity

Title Card Required

0 1
C         -2.53245500   -1.52880600   -1.2229180
C         -2.67901000   -0.23705100   -0.9140370
C         -2.20015600   0.39398200   0.3534880
C         -1.19624000   1.51917700   0.0971970
C         -0.72064700   2.16389300   1.3927600
H         -2.05624300   -2.21540200   -0.5336960
H         -2.88635400   -1.92746300   -2.1634870
H         -3.16027800   0.42195400   -1.6316430
H         -3.05176300   0.80649300   0.9046490
H         -1.74577800   -0.36850000   0.9921740
H         -0.34527400   1.12117000   -0.4601150
H         -1.66056400   2.27350700   -0.5434760
H         -1.55769900   2.60162700   1.9385880
H         -0.25197500   1.42461500   2.0444420
H         0.00644200   2.95426500   1.2053460
C         2.53314400   1.52800500   -1.2233910
C         2.67998300   0.23663900   -0.9130270
C         2.19966000   -0.39346900   0.3543910
C         1.19638200   -1.51913500   0.0976550
C         0.71959400   -2.16332000   1.3930350
H         2.05562200   2.21503500   -0.5355050
H         2.88811700   1.92590100   -2.1638750
H         3.16260400   -0.42282000   -1.6293120
H         3.05064800   -0.80544100   0.9069140
H         1.74433000   0.36939300   0.9919300
H         0.34582900   -1.12183400   -0.4608000
H         1.66171000   -2.27361600   -0.5421280
H         1.55618800   -2.60039900   1.9400890
H         0.24984900   -1.42388300   2.0437720
H         -0.00694600   -2.95409900   1.2052190
