%chk=C:\Users\User\Desktop\gaussian\pentane\pentane.chk
# hf/3-21g geom=connectivity

Title Card Required

0 1
C         -3.189708   -0.717907   0.13552
C         -1.816684   -0.121549   -0.06084
O         -0.917517   -0.748696   -0.61681
N         -1.642569   1.138162   0.41000
H         -3.910371   -0.012926   0.54380
H         -3.545506   -1.087835   -0.82302
H         -3.100788   -1.569386   0.80778
H         -0.722233   1.554714   0.36622
H         -2.375927   1.609640   0.90444
C         2.550186   -0.887243   0.98888
C         2.259614   -0.640736   -0.47988
C         1.545377   0.647377   -0.73977
O         1.313693   1.490957   0.11126
H         1.230740   0.813540   -1.78321
H         1.629603   -1.424424   -0.90739
H         3.074833   -1.831365   1.12312
H         3.159876   -0.088046   1.40610
H         1.620501   -0.924878   1.55410
H         3.175127   -0.623908   -1.08110
