%chk=C:\Users\User\Desktop\gaussian\pentane\pentane.chk
# hf/3-21g geom=connectivity

Title Card Required

0 1
C         -2.279049   0.109247   0.00005
C         -3.775793   0.004386   0.00006
O         -1.657874   1.156989   0.00019
O         -1.696790   -1.096154   -0.00006
H         -0.716384   -0.964306   -0.00000
H         -4.212920   0.996315   -0.00037
H         -4.100380   -0.551633   -0.87737
H         -4.100356   -0.550782   0.87805
C         2.894088   0.752849   -0.00015
C         1.442478   0.393955   -0.00023
C         3.827998   -0.443569   0.00012
O         1.037019   -0.761243   -0.00000
H         0.716133   1.219410   -0.00036
H         3.056004   1.400025   0.86784
H         3.659135   -1.064196   0.87780
H         3.659287   -1.064483   -0.87739
H         4.866174   -0.118033   0.00015
H         3.056147   1.399732   -0.86835
