%chk=C:\Users\User\Desktop\gaussian\pentane\pentane.chk
# hf/3-21g geom=connectivity

Title Card Required

0 1
C         -2.068512   1.026380   -0.48618
C         -1.854972   -0.469935   -0.37155
O         -1.437423   -0.860787   0.93701
H         -2.873207   1.353857   0.17369
H         -2.341067   1.296564   -1.50691
H         -1.160327   1.561016   -0.21262
H         -2.760680   -1.010665   -0.66017
H         -1.053350   -0.794160   -1.03309
H         -2.144242   -0.633817   1.55053
C         1.904331   -1.177250   -0.34293
C         1.836223   0.330075   -0.55834
C         1.726421   1.082880   0.76215
H         2.783548   -1.439484   0.24755
H         1.024423   -1.526221   0.19895
H         1.964276   -1.717842   -1.28780
H         0.977800   0.572694   -1.18952
H         2.720982   0.666313   -1.10344
H         1.663009   2.160629   0.60924
H         0.840271   0.759449   1.30925
H         2.597006   0.885069   1.38939
