%chk=C:\Users\User\Desktop\gaussian\pentane\pentane.chk
# hf/3-21g geom=connectivity

Title Card Required

0 1
C         -1.30395400   1.32600100   -0.25923900
C         -2.20121100   0.47631000   0.24780200
C         -2.31319700   -0.96277400   -0.14235200
H         -1.26943600   2.36004400   0.05483200
H         -0.58464900   0.99807500   -0.99911900
H         -2.90244900   0.84025900   0.99197800
H         -3.30095900   -1.17810200   -0.55299600
H         -1.56261100   -1.22369200   -0.88704500
H         -2.17957100   -1.61415500   0.72332200
C         1.30411800   -1.32601800   0.25976600
C         2.20077200   -0.47623500   -0.24818700
C         2.31339100   0.96273200   0.14219500
H         1.26912200   -2.35995600   -0.05459500
H         0.58580600   -0.99829800   1.00070100
H         2.90100000   -0.84002700   -0.99339400
H         2.17864400   1.61436100   -0.72312300
H         1.56385600   1.22353100   0.88799000
H         3.30173500   1.17786400   0.55154100
