%chk=C:\Users\User\Desktop\gaussian\pentane\pentane.chk
# hf/3-21g geom=connectivity

Title Card Required

0 1
C         -2.376615   0.306315   0.16341
O         -1.845336   0.324098   -1.05357
O         -1.895674   -0.229229   1.14422
H         -3.325685   0.847915   0.18036
H         -0.988095   -0.175927   -1.01246
C         2.095996   0.212074   0.55442
C         1.701753   -1.024939   -0.23117
C         1.651218   1.507852   -0.11079
O         0.283791   -1.160194   -0.37805
H         1.675900   0.141642   1.56153
H         3.182715   0.201069   0.66869
H         2.094659   -0.973574   -1.24639
H         2.102951   -1.923932   0.24213
H         -0.134979   -1.122650   0.49806
H         0.566703   1.557659   -0.19262
H         1.981552   2.374135   0.46039
H         2.067920   1.588451   -1.11563
