%chk=C:\Users\User\Desktop\gaussian\pentane\pentane.chk
# hf/3-21g geom=connectivity

Title Card Required

0 1
C         2.18584800   0.69158400   1.2710730
C         2.73191000   0.41847000   -0.1243650
C         1.66162300   -0.02873600   -1.1024340
O         1.03415100   -1.25943800   -0.7152410
H         3.51669300   -0.34339300   -0.0844000
H         3.19894900   1.31892100   -0.5312880
H         0.85167700   0.70027800   -1.1367340
H         2.07349900   -0.12734800   -2.1097910
H         1.71737300   -1.93618700   -0.6521510
H         2.97887500   1.01798800   1.9424480
H         1.42467400   1.47146300   1.2405280
H         1.72320100   -0.19623400   1.6980360
C         -2.11134400   1.58257800   -0.3116090
C         -2.30480700   0.12506100   -0.7092090
C         -2.26806800   -0.81153400   0.4892000
O         -1.03663100   -0.74738100   1.1960080
H         -1.52876400   -0.18274700   -1.4155290
H         -3.26257200   -0.00390700   -1.2204830
H         -3.03937000   -0.52669400   1.2068170
H         -2.47621200   -1.83708700   0.1665610
H         -0.33682500   -1.02361800   0.5821880
H         -1.17363000   1.71062200   0.2275380
H         -2.10229000   2.23692000   -1.1830710
H         -2.91641700   1.91104900   0.3472590
