%chk=C:\Users\User\Desktop\gaussian\pentane\pentane.chk
# hf/3-21g geom=connectivity

Title Card Required

0 1
C         3.287738   0.067972   -0.31242
C         1.798008   0.298941   -0.18586
C         3.710092   -1.245925   0.329956
O         0.992130   -0.633245   -0.26346
N         1.404725   1.579676   -0.00434
H         0.410939   1.781193   0.02954
H         2.077081   2.322470   0.03367
H         3.139855   -2.068664   -0.09388
H         4.770439   -1.428893   0.165480
H         3.527035   -1.227928   1.40342
H         3.510003   0.049626   -1.38204
H         3.835423   0.909581   0.11389
C         -3.968838   -0.493798   -0.806547
C         -3.143225   -0.781965   0.440061
C         -2.313355   0.414729   0.87387
O         -1.373327   0.810577   -0.12147
H         -2.471355   -1.625628   0.26151
H         -3.794567   -1.067328   1.27043
H         -2.960142   1.278206   1.03744
H         -1.799781   0.195370   1.81555
H         -0.715224   0.091956   -0.211952
H         -3.323695   -0.194440   -1.63036
H         -4.538049   -1.369373   -1.116322
H         -4.673982   0.317738   -0.620806
