%chk=C:\Users\User\Desktop\gaussian\pentane\pentane.chk
# hf/3-21g geom=connectivity

Title Card Required

0 1
C         2.824911   -1.283655   -0.23660
C         2.001084   -0.131280   0.32314
C         1.128661   0.504689   -0.74461
C         0.223217   1.589965   -0.24061
O         0.107772   1.901580   0.92996
H         -0.367178   2.111301   -1.01586
H         1.733027   0.928727   -1.55416
H         2.655339   0.630504   0.74997
H         1.368759   -0.478057   1.14070
H         0.480812   -0.237712   -1.22649
H         2.177912   -2.066155   -0.63620
H         3.473124   -0.945505   -1.04607
H         3.454788   -1.730692   0.53143
C         -2.832200   0.277460   -0.48085
C         -2.337095   -0.957775   -0.35820
C         -1.544447   -1.436729   0.81583
H         -3.411441   0.564695   -1.34749
H         -2.672488   1.021282   0.28975
H         -2.524510   -1.675205   -1.15117
H         -0.589485   -1.860107   0.49807
H         -1.347255   -0.623916   1.51405
H         -2.078361   -2.227848   1.34523
