%chk=C:\Users\User\Desktop\gaussian\pentane\pentane.chk
# hf/3-21g geom=connectivity

Title Card Required

0 1
C         4.049398   -0.828827   0.00017
C         3.247016   0.459884   -0.00004
C         1.760443   0.220850   -0.00000
O         1.236241   -0.878912   0.00017
O         1.072268   1.369100   -0.00020
H         3.817270   -1.428575   -0.87738
H         5.116293   -0.612175   0.00014
H         3.817264   -1.428283   0.87793
H         3.475344   1.077081   -0.87057
H         3.475341   1.077370   0.87029
H         0.107693   1.150346   -0.00020
C         -3.332912   -0.889088   -0.00026
C         -1.920148   -0.398752   -0.00030
C         -4.372343   0.216905   0.00040
O         -1.622027   0.788593   0.00005
H         -1.121334   -1.154408   -0.00086
H         -3.434852   -1.548533   0.86761
H         -4.260830   0.850147   0.87824
H         -4.261159   0.850897   -0.87693
H         -5.376427   -0.202153   0.00041
H         -3.435183   -1.547795   -0.86866
