%chk=C:\Users\User\Desktop\gaussian\pentane\pentane.chk
# hf/3-21g geom=connectivity

Title Card Required

0 1
C         3.50547300   0.64706500   0.0005720
C         2.01244700   0.38807000   -0.0000830
C         4.42145300   -0.56848300   0.0002390
O         1.22568200   1.34439300   -0.0005220
N         1.59761400   -0.88990900   -0.0001190
H         0.59429300   -1.09901900   -0.0002970
H         2.26265000   -1.64040300   0.0003890
H         5.46387000   -0.25456400   0.0005630
H         4.26829700   -1.18632700   0.8853870
H         4.26858500   -1.18558400   -0.8854750
H         3.69825600   1.27621600   -0.8693490
H         3.69765800   1.27525800   0.8713270
C         -3.50546200   -0.64707200   0.0001360
C         -2.01243500   -0.38805700   -0.0002970
C         -4.42146500   0.56844800   0.0008000
O         -1.22566500   -1.34437600   -0.0003790
N         -1.59763200   0.88993000   -0.0006310
H         -0.59432400   1.09907600   -0.0007540
H         -2.26270000   1.64039700   -0.0004600
H         -4.26888900   1.18610000   -0.8845860
H         -5.46387600   0.25450800   0.0012110
H         -4.26805300   1.18575600   0.8862760
H         -3.69822600   -1.27549600   -0.8703250
H         -3.69761500   -1.27602300   0.8703440
