%chk=C:\Users\User\Desktop\gaussian\pentane\pentane.chk
# hf/3-21g geom=connectivity

Title Card Required

0 1
C         2.800950   0.758739   -0.25190
C         2.084141   -0.547949   -0.56747
C         1.790847   -1.349148   0.69447
H         2.192604   1.375419   0.41090
H         3.752001   0.566877   0.24732
H         3.005768   1.334874   -1.15422
H         2.691909   -1.146053   -1.24993
H         1.148606   -0.332597   -1.08766
H         1.290916   -2.291476   0.46907
H         2.714129   -1.579966   1.22833
H         1.150250   -0.777598   1.36798
C         -0.774283   1.848336   0.15914
C         -1.299115   0.687844   0.56326
C         -1.719485   -0.420589   -0.34755
C         -3.212743   -0.723080   -0.21707
H         -0.505122   2.622009   0.86485
H         -0.602506   2.045943   -0.89189
H         -1.459424   0.526615   1.62618
H         -1.478652   -0.153555   -1.37867
H         -1.149321   -1.322407   -0.10747
H         -3.463905   -0.990470   0.80974
H         -3.805360   0.149467   -0.49024
H         -3.503762   -1.551996   -0.86151
