%chk=C:\Users\User\Desktop\gaussian\pentane\pentane.chk
# hf/3-21g geom=connectivity

Title Card Required

0 1
C         2.801404   0.350511   0.04191
C         1.286241   0.382096   -0.00691
C         3.347176   -1.054325   -0.16150
O         0.633764   -0.425946   -0.66352
N         0.698849   1.365644   0.72278
H         -0.294143   1.524455   0.61076
H         1.258760   2.067025   1.17148
H         2.974213   -1.469913   -1.09424
H         4.435491   -1.043201   -0.18926
H         3.030071   -1.712217   0.64631
H         3.155452   1.011114   -0.75379
H         3.149276   0.776372   0.98457
C         -2.188215   -1.054749   1.21770
C         -2.405876   -1.026091   -0.28321
C         -2.316196   0.339128   -0.88608
O         -2.114956   1.367539   -0.26198
H         -2.459087   0.384171   -1.97976
H         -3.385738   -1.427862   -0.56339
H         -2.310872   -2.066028   1.60125
H         -1.182164   -0.717170   1.45902
H         -2.895936   -0.403188   1.72791
H         -1.664931   -1.635223   -0.80764
