%chk=C:\Users\User\Desktop\gaussian\pentane\pentane.chk
# hf/3-21g geom=connectivity

Title Card Required

0 1
C         -2.118677   1.090643   -0.19013
C         -1.723921   -0.339646   -0.53503
C         -1.422675   -1.158205   0.71377
H         -3.008592   1.103947   0.44096
H         -1.313557   1.585186   0.35479
H         -2.331806   1.677291   -1.08363
H         -0.845379   -0.325909   -1.18383
H         -2.524915   -0.816666   -1.10399
H         -1.148263   -2.184695   0.46998
H         -0.598894   -0.710627   1.27183
H         -2.292677   -1.191329   1.37145
C         1.736938   1.250047   0.62513
C         1.838565   0.409972   -0.40832
C         2.097852   -1.056798   -0.28382
H         1.550510   2.304407   0.47657
H         1.842661   0.896938   1.64348
H         1.728077   0.805807   -1.41298
H         3.014745   -1.335447   -0.80552
H         2.192860   -1.349781   0.76103
H         1.286745   -1.635209   -0.72967
