%chk=C:\Users\User\Desktop\gaussian\pentane\pentane.chk
# hf/3-21g geom=connectivity

Title Card Required

0 1
C         -1.132267   2.069621   0.05247
C         -1.398617   0.689992   -0.53545
C         -1.978105   -0.280295   0.48627
C         -2.188445   -1.674800   -0.08996
H         -0.419476   2.007412   0.87625
H         -2.052168   2.508114   0.44183
H         -0.723280   2.753020   -0.69152
H         -2.088532   0.772781   -1.37981
H         -0.470385   0.273569   -0.93615
H         -2.926832   0.116347   0.85810
H         -1.308656   -0.335130   1.34941
H         -1.242262   -2.096030   -0.43268
H         -2.611444   -2.356265   0.64772
H         -2.866332   -1.642094   -0.94397
C         2.019147   -1.502536   -0.28385
C         2.032793   -0.260549   0.59881
C         2.494300   0.975461   -0.16305
H         1.359082   -1.361213   -1.14131
H         3.018055   -1.713336   -0.66855
H         1.676550   -2.381683   0.26176
H         2.688676   -0.428681   1.45557
H         1.033491   -0.088823   1.00426
H         2.502796   1.861182   0.47190
H         3.502408   0.832511   -0.55496
H         1.835471   1.176954   -1.00924
