%chk=C:\Users\User\Desktop\gaussian\pentane\pentane.chk
# hf/3-21g geom=connectivity

Title Card Required

0 1
C         -4.212789   -0.985846   -0.00005
C         -3.502876   0.355930   -0.00029
C         -2.002436   0.229531   -0.00008
O         -1.416290   -0.846939   -0.00026
O         -1.398925   1.408782   0.00017
H         -3.940451   -1.567643   0.87803
H         -5.292115   -0.843577   -0.00026
H         -3.940151   -1.568115   -0.87773
H         -3.774361   0.956158   0.86967
H         -3.774107   0.955662   -0.87069
H         -0.402425   1.293567   -0.00000
C         3.469438   0.434573   0.00064
C         1.965046   0.283578   -0.00024
C         4.290471   -0.846785   0.00093
O         1.250097   1.297591   -0.00080
N         1.452111   -0.955384   -0.00028
H         0.437171   -1.062490   -0.00055
H         2.050478   -1.759884   0.00047
H         5.353118   -0.611538   0.00146
H         4.091632   -1.450656   0.88659
H         4.092449   -1.450508   -0.88501
H         3.707390   1.047806   -0.86936
H         3.706410   1.047543   0.87111
