%chk=C:\Users\User\Desktop\gaussian\pentane\pentane.chk
# hf/3-21g geom=connectivity

Title Card Required

0 1
 C                  1.72192956   -0.68442793    0.35820801
 C                  1.72197856    0.68442607   -0.31192699
 H                  0.84293056   -0.81633893    0.98825301
 H                  2.60256456   -0.81468193    0.98608001
 H                  1.72057056   -1.48518193   -0.38054599
 H                  1.72040056    1.48518007    0.42682701
 H                  0.84312656    0.81629107   -0.94218499
 H                  2.60276156    0.81472307   -0.93958299
 C                 -1.72193456   -0.68442607   -0.35820901
 C                 -1.72197356    0.68442793    0.31192699
 H                 -1.72059256   -1.48518007    0.38054599
 H                 -0.84293256   -0.81634707   -0.98824501
 H                 -2.60256556   -0.81466907   -0.98608801
 H                 -0.84312456    0.81628393    0.94219099
 H                 -2.60275856    0.81473493    0.93957699
 H                 -1.72038056    1.48518193   -0.42682701

 1 2 1.0 3 1.0 4 1.0 5 1.0
 2 6 1.0 7 1.0 8 1.0
 3
 4
 5
 6
 7
 8
 9 10 1.0 11 1.0 12 1.0 13 1.0
 10 14 1.0 15 1.0 16 1.0
 11
 12
 13
 14
 15
 16

