%chk=C:\Users\User\Desktop\gaussian\pentane\pentane.chk
# hf/3-21g geom=connectivity

Title Card Required

0 1
 C                  1.22993640   -0.68442766    0.44733001
 C                  1.22998540    0.68442634   -0.22280499
 H                  0.35093740   -0.81633866    1.07737501
 H                  2.11057140   -0.81468166    1.07520201
 H                  1.22857740   -1.48518166   -0.29142399
 H                  1.22840740    1.48518034    0.51594901
 H                  0.35113340    0.81629134   -0.85306299
 H                  2.11076840    0.81472334   -0.85046099
 C                 -1.22994140   -0.68442634   -0.44733101
 C                 -1.22998040    0.68442766    0.22280499
 H                 -1.22859940   -1.48518034    0.29142399
 H                 -0.35093940   -0.81634734   -1.07736701
 H                 -2.11057240   -0.81466934   -1.07521001
 H                 -0.35113140    0.81628366    0.85306899
 H                 -2.11076540    0.81473466    0.85045499
 H                 -1.22838740    1.48518166   -0.51594901

 1 2 1.0 3 1.0 4 1.0 5 1.0
 2 6 1.0 7 1.0 8 1.0
 3
 4
 5
 6
 7
 8
 9 10 1.0 11 1.0 12 1.0 13 1.0
 10 14 1.0 15 1.0 16 1.0
 11
 12
 13
 14
 15
 16

