%chk=C:\Users\User\Desktop\gaussian\pentane\pentane.chk
# hf/3-21g geom=connectivity

Title Card Required

0 1
 C                 -1.49627305   -1.23363809    0.51183856
 C                 -1.18529505   -0.05068009   -0.39672444
 C                 -1.28625005    1.27855491    0.34095556
 H                 -0.80659905   -1.26495709    1.35680456
 H                 -2.50746005   -1.15608409    0.91397656
 H                 -1.41758305   -2.18171209   -0.01972844
 H                 -1.87256605   -0.05106809   -1.24532344
 H                 -0.18177405   -0.16349209   -0.81210644
 H                 -1.05986905    2.12088091   -0.31252044
 H                 -2.29149705    1.42248091    0.73982456
 H                 -0.58943805    1.30967491    1.18003756
 C                  1.49597405   -1.23376491   -0.51184256
 C                  1.18543805   -0.05072391    0.39676444
 C                  1.28642505    1.27846609   -0.34098856
 H                  0.80606005   -1.26503491   -1.35662056
 H                  2.50706005   -1.15637391   -0.91426456
 H                  1.41727805   -2.18180191    0.01978844
 H                  1.87292605   -0.05119291    1.24518744
 H                  0.18200105   -0.16334791    0.81240944
 H                  1.06041005    2.12085009    0.31253944
 H                  2.29157705    1.42219509   -0.74016856
 H                  0.58936105    1.30969109   -1.17984756

 1 2 1.0 4 1.0 5 1.0 6 1.0
 2 3 1.0 7 1.0 8 1.0
 3 9 1.0 10 1.0 11 1.0
 4
 5
 6
 7
 8
 9
 10
 11
 12 13 1.0 15 1.0 16 1.0 17 1.0
 13 14 1.0 18 1.0 19 1.0
 14 20 1.0 21 1.0 22 1.0
 15
 16
 17
 18
 19
 20
 21
 22

